*SPEF "ieee 1481-1999"
*DESIGN "booth8_chip"
*DATE "11:11:11 Fri 11 11, 1111"
*VENDOR "OpenRCX"
*PROGRAM "Parallel Extraction"
*VERSION "1.0"
*DESIGN_FLOW "NAME_SCOPE LOCAL" "PIN_CAP NONE"
*DIVIDER /
*DELIMITER :
*BUS_DELIMITER []
*T_UNIT 1 NS
*C_UNIT 1 PF
*R_UNIT 1 OHM
*L_UNIT 1 HENRY

*NAME_MAP
*3 clk
*4 done
*5 multiplicand[0]
*6 multiplicand[1]
*7 multiplicand[2]
*8 multiplicand[3]
*9 multiplicand[4]
*10 multiplicand[5]
*11 multiplicand[6]
*12 multiplicand[7]
*13 multiplier[0]
*14 multiplier[1]
*15 multiplier[2]
*16 multiplier[3]
*17 multiplier[4]
*18 multiplier[5]
*19 multiplier[6]
*20 multiplier[7]
*21 product[0]
*22 product[10]
*23 product[11]
*24 product[12]
*25 product[13]
*26 product[14]
*27 product[15]
*28 product[1]
*29 product[2]
*30 product[3]
*31 product[4]
*32 product[5]
*33 product[6]
*34 product[7]
*35 product[8]
*36 product[9]
*37 rst
*38 start
*39 _000_
*40 _001_
*41 _002_
*42 _003_
*43 _004_
*44 _005_
*45 _006_
*46 _007_
*47 _008_
*48 _009_
*49 _010_
*50 _011_
*51 _012_
*52 _013_
*53 _014_
*54 _015_
*55 _016_
*56 _017_
*57 _018_
*58 _019_
*59 _020_
*60 _021_
*61 _022_
*62 _023_
*63 _024_
*64 _025_
*65 _026_
*66 _027_
*67 _028_
*68 _029_
*69 _030_
*70 _031_
*71 _032_
*72 _033_
*73 _034_
*74 _035_
*75 _036_
*76 _037_
*77 _038_
*78 _039_
*79 _040_
*80 _041_
*81 _042_
*82 _043_
*83 _044_
*84 _045_
*85 _046_
*86 _047_
*87 _048_
*88 _049_
*89 _050_
*90 _051_
*91 _052_
*92 _053_
*93 _054_
*94 _055_
*95 _056_
*96 _057_
*97 _058_
*98 _059_
*99 _060_
*100 _061_
*101 _062_
*102 _063_
*103 _064_
*104 _065_
*105 _066_
*106 _067_
*107 _068_
*108 _069_
*109 _070_
*110 _071_
*111 _072_
*112 _073_
*113 _074_
*114 _075_
*115 _076_
*116 _077_
*117 _078_
*118 _079_
*119 _080_
*120 _081_
*121 _082_
*122 _083_
*123 _084_
*124 _085_
*125 _086_
*126 _087_
*127 _088_
*128 _089_
*129 _090_
*130 _091_
*131 _092_
*132 _093_
*133 _094_
*134 _095_
*135 _096_
*136 _097_
*137 _098_
*138 _099_
*139 _100_
*140 _101_
*141 _102_
*142 _103_
*143 _104_
*144 _105_
*145 _106_
*146 _107_
*147 _108_
*148 _109_
*149 _110_
*150 _111_
*151 _112_
*152 _113_
*153 _114_
*154 _115_
*155 _116_
*156 _117_
*157 _118_
*158 _119_
*159 _120_
*160 _121_
*161 _122_
*162 _123_
*163 _124_
*164 _125_
*165 _126_
*166 _127_
*167 _128_
*168 _129_
*169 _130_
*170 _131_
*171 _132_
*172 _133_
*173 _134_
*174 _135_
*175 _136_
*176 _137_
*177 _138_
*178 _139_
*179 _140_
*180 _141_
*181 _142_
*182 _143_
*183 _144_
*184 _145_
*185 _146_
*186 _147_
*187 _148_
*188 _149_
*189 _150_
*190 _151_
*191 _152_
*192 _153_
*193 _154_
*194 _155_
*195 _156_
*196 _157_
*197 _158_
*198 _159_
*199 _160_
*200 _161_
*201 _162_
*202 _163_
*203 _164_
*204 _165_
*205 _166_
*206 _167_
*207 _168_
*208 _169_
*209 _170_
*210 _171_
*211 _172_
*212 _173_
*213 _174_
*214 _175_
*215 _176_
*216 _177_
*217 _178_
*218 _179_
*219 _180_
*220 _181_
*221 _182_
*222 _183_
*223 _184_
*224 _185_
*225 _186_
*226 _187_
*227 _188_
*228 _189_
*229 _190_
*230 _191_
*231 _192_
*232 _193_
*233 _194_
*234 _195_
*235 _196_
*236 _197_
*237 _198_
*238 _199_
*239 _200_
*240 _201_
*241 _202_
*242 _203_
*243 _204_
*244 _205_
*245 _206_
*246 _207_
*247 _208_
*248 _209_
*249 _210_
*250 _211_
*251 _212_
*252 _213_
*253 _214_
*254 _215_
*255 _216_
*256 _217_
*257 _218_
*258 _219_
*259 _220_
*260 _221_
*261 _222_
*262 _223_
*263 _224_
*264 _225_
*265 _226_
*266 _227_
*267 _228_
*268 _229_
*269 _230_
*270 _231_
*271 _232_
*272 _233_
*273 _234_
*274 _235_
*275 _236_
*276 _237_
*277 _238_
*278 _239_
*279 _240_
*280 _241_
*281 _242_
*282 _243_
*283 _244_
*284 _245_
*285 _246_
*286 _247_
*287 _248_
*288 _249_
*289 _250_
*290 _251_
*291 _252_
*292 _253_
*293 _254_
*294 _255_
*295 _256_
*296 _257_
*297 _258_
*298 _259_
*299 _260_
*300 _261_
*301 _262_
*302 _263_
*303 _264_
*304 _265_
*305 _266_
*306 _267_
*307 _268_
*308 _269_
*309 _270_
*310 _271_
*311 _272_
*312 _273_
*313 _274_
*314 _275_
*315 _276_
*316 _277_
*317 _278_
*318 _279_
*319 _280_
*320 _281_
*321 _282_
*322 _283_
*323 _284_
*324 _285_
*325 _286_
*326 _287_
*327 _288_
*328 _289_
*329 _290_
*330 _291_
*331 _292_
*332 _293_
*333 _294_
*334 _295_
*335 _296_
*336 _297_
*337 _298_
*338 _299_
*339 _300_
*340 _301_
*341 _302_
*342 _303_
*343 _304_
*344 _305_
*345 _306_
*346 _307_
*347 _308_
*348 _309_
*349 _310_
*350 _311_
*351 _312_
*352 _313_
*353 _314_
*354 _315_
*355 _316_
*356 _317_
*357 _318_
*358 _319_
*359 _320_
*360 _321_
*361 _322_
*362 _323_
*363 _324_
*364 _325_
*365 _326_
*366 _327_
*367 _328_
*368 _329_
*369 _330_
*370 _331_
*371 _332_
*372 _333_
*373 _334_
*374 _335_
*375 _336_
*376 _337_
*377 _338_
*378 _339_
*379 _340_
*380 _341_
*381 _342_
*382 _343_
*383 _344_
*384 _345_
*385 _346_
*386 clknet_0_clk
*387 clknet_2_0__leaf_clk
*388 clknet_2_1__leaf_clk
*389 clknet_2_2__leaf_clk
*390 clknet_2_3__leaf_clk
*391 net1
*392 net10
*393 net11
*394 net12
*395 net13
*396 net14
*397 net15
*398 net16
*399 net17
*400 net18
*401 net19
*402 net2
*403 net20
*404 net21
*405 net22
*406 net23
*407 net24
*408 net25
*409 net26
*410 net27
*411 net28
*412 net29
*413 net3
*414 net30
*415 net31
*416 net32
*417 net33
*418 net34
*419 net35
*420 net36
*421 net37
*422 net38
*423 net39
*424 net4
*425 net40
*426 net41
*427 net42
*428 net43
*429 net44
*430 net45
*431 net46
*432 net47
*433 net48
*434 net49
*435 net5
*436 net50
*437 net51
*438 net52
*439 net53
*440 net54
*441 net55
*442 net56
*443 net57
*444 net58
*445 net59
*446 net6
*447 net60
*448 net61
*449 net62
*450 net63
*451 net64
*452 net65
*453 net66
*454 net67
*455 net68
*456 net69
*457 net7
*458 net70
*459 net8
*460 net9
*461 u_core\.A\[0\]
*462 u_core\.A\[10\]
*463 u_core\.A\[11\]
*464 u_core\.A\[12\]
*465 u_core\.A\[13\]
*466 u_core\.A\[14\]
*467 u_core\.A\[1\]
*468 u_core\.A\[2\]
*469 u_core\.A\[3\]
*470 u_core\.A\[4\]
*471 u_core\.A\[5\]
*472 u_core\.A\[6\]
*473 u_core\.A\[7\]
*474 u_core\.A\[8\]
*475 u_core\.A\[9\]
*476 u_core\.M\[0\]
*477 u_core\.M\[1\]
*478 u_core\.M\[2\]
*479 u_core\.M\[3\]
*480 u_core\.M\[4\]
*481 u_core\.M\[5\]
*482 u_core\.M\[6\]
*483 u_core\.M\[7\]
*484 u_core\.Q\[0\]
*485 u_core\.Q\[1\]
*486 u_core\.Q\[2\]
*487 u_core\.Q\[3\]
*488 u_core\.Q\[4\]
*489 u_core\.Q\[5\]
*490 u_core\.Q\[6\]
*491 u_core\.Q\[7\]
*492 u_core\.Q_1
*493 u_core\.busy
*494 u_core\.count\[0\]
*495 u_core\.count\[1\]
*496 u_core\.count\[2\]
*497 u_core\.count\[3\]
*498 ANTENNA_1
*499 FILLER_0_0_10
*500 FILLER_0_0_105
*501 FILLER_0_0_111
*502 FILLER_0_0_113
*503 FILLER_0_0_125
*504 FILLER_0_0_13
*505 FILLER_0_0_132
*506 FILLER_0_0_144
*507 FILLER_0_0_156
*508 FILLER_0_0_163
*509 FILLER_0_0_167
*510 FILLER_0_0_169
*511 FILLER_0_0_181
*512 FILLER_0_0_189
*513 FILLER_0_0_195
*514 FILLER_0_0_197
*515 FILLER_0_0_209
*516 FILLER_0_0_21
*517 FILLER_0_0_215
*518 FILLER_0_0_27
*519 FILLER_0_0_29
*520 FILLER_0_0_41
*521 FILLER_0_0_49
*522 FILLER_0_0_55
*523 FILLER_0_0_57
*524 FILLER_0_0_6
*525 FILLER_0_0_69
*526 FILLER_0_0_76
*527 FILLER_0_0_85
*528 FILLER_0_0_97
*529 FILLER_0_10_118
*530 FILLER_0_10_126
*531 FILLER_0_10_131
*532 FILLER_0_10_156
*533 FILLER_0_10_161
*534 FILLER_0_10_169
*535 FILLER_0_10_181
*536 FILLER_0_10_186
*537 FILLER_0_10_194
*538 FILLER_0_10_197
*539 FILLER_0_10_209
*540 FILLER_0_10_217
*541 FILLER_0_10_29
*542 FILLER_0_10_3
*543 FILLER_0_10_38
*544 FILLER_0_10_50
*545 FILLER_0_10_58
*546 FILLER_0_10_85
*547 FILLER_0_10_93
*548 FILLER_0_11_105
*549 FILLER_0_11_113
*550 FILLER_0_11_132
*551 FILLER_0_11_147
*552 FILLER_0_11_155
*553 FILLER_0_11_167
*554 FILLER_0_11_169
*555 FILLER_0_11_18
*556 FILLER_0_11_198
*557 FILLER_0_11_210
*558 FILLER_0_11_22
*559 FILLER_0_11_48
*560 FILLER_0_11_57
*561 FILLER_0_11_65
*562 FILLER_0_11_77
*563 FILLER_0_11_89
*564 FILLER_0_11_97
*565 FILLER_0_12_100
*566 FILLER_0_12_106
*567 FILLER_0_12_112
*568 FILLER_0_12_120
*569 FILLER_0_12_132
*570 FILLER_0_12_141
*571 FILLER_0_12_15
*572 FILLER_0_12_150
*573 FILLER_0_12_156
*574 FILLER_0_12_160
*575 FILLER_0_12_169
*576 FILLER_0_12_177
*577 FILLER_0_12_185
*578 FILLER_0_12_193
*579 FILLER_0_12_197
*580 FILLER_0_12_201
*581 FILLER_0_12_213
*582 FILLER_0_12_27
*583 FILLER_0_12_29
*584 FILLER_0_12_3
*585 FILLER_0_12_43
*586 FILLER_0_12_78
*587 FILLER_0_13_102
*588 FILLER_0_13_110
*589 FILLER_0_13_113
*590 FILLER_0_13_117
*591 FILLER_0_13_124
*592 FILLER_0_13_133
*593 FILLER_0_13_14
*594 FILLER_0_13_149
*595 FILLER_0_13_209
*596 FILLER_0_13_217
*597 FILLER_0_13_26
*598 FILLER_0_13_3
*599 FILLER_0_13_38
*600 FILLER_0_13_50
*601 FILLER_0_13_57
*602 FILLER_0_13_75
*603 FILLER_0_13_87
*604 FILLER_0_13_93
*605 FILLER_0_14_109
*606 FILLER_0_14_128
*607 FILLER_0_14_134
*608 FILLER_0_14_141
*609 FILLER_0_14_147
*610 FILLER_0_14_166
*611 FILLER_0_14_178
*612 FILLER_0_14_189
*613 FILLER_0_14_195
*614 FILLER_0_14_197
*615 FILLER_0_14_205
*616 FILLER_0_14_211
*617 FILLER_0_14_27
*618 FILLER_0_14_3
*619 FILLER_0_14_56
*620 FILLER_0_14_67
*621 FILLER_0_14_80
*622 FILLER_0_14_91
*623 FILLER_0_15_107
*624 FILLER_0_15_111
*625 FILLER_0_15_113
*626 FILLER_0_15_140
*627 FILLER_0_15_15
*628 FILLER_0_15_152
*629 FILLER_0_15_164
*630 FILLER_0_15_169
*631 FILLER_0_15_181
*632 FILLER_0_15_193
*633 FILLER_0_15_27
*634 FILLER_0_15_3
*635 FILLER_0_15_49
*636 FILLER_0_15_55
*637 FILLER_0_15_57
*638 FILLER_0_15_80
*639 FILLER_0_15_88
*640 FILLER_0_16_104
*641 FILLER_0_16_116
*642 FILLER_0_16_133
*643 FILLER_0_16_141
*644 FILLER_0_16_153
*645 FILLER_0_16_159
*646 FILLER_0_16_164
*647 FILLER_0_16_176
*648 FILLER_0_16_188
*649 FILLER_0_16_197
*650 FILLER_0_16_208
*651 FILLER_0_16_21
*652 FILLER_0_16_212
*653 FILLER_0_16_27
*654 FILLER_0_16_29
*655 FILLER_0_16_41
*656 FILLER_0_16_53
*657 FILLER_0_16_65
*658 FILLER_0_16_74
*659 FILLER_0_16_92
*660 FILLER_0_17_101
*661 FILLER_0_17_125
*662 FILLER_0_17_135
*663 FILLER_0_17_147
*664 FILLER_0_17_159
*665 FILLER_0_17_176
*666 FILLER_0_17_182
*667 FILLER_0_17_202
*668 FILLER_0_17_217
*669 FILLER_0_17_3
*670 FILLER_0_17_51
*671 FILLER_0_17_55
*672 FILLER_0_17_57
*673 FILLER_0_17_63
*674 FILLER_0_17_77
*675 FILLER_0_17_89
*676 FILLER_0_18_101
*677 FILLER_0_18_11
*678 FILLER_0_18_128
*679 FILLER_0_18_141
*680 FILLER_0_18_153
*681 FILLER_0_18_159
*682 FILLER_0_18_166
*683 FILLER_0_18_174
*684 FILLER_0_18_217
*685 FILLER_0_18_23
*686 FILLER_0_18_27
*687 FILLER_0_18_29
*688 FILLER_0_18_3
*689 FILLER_0_18_41
*690 FILLER_0_18_53
*691 FILLER_0_18_65
*692 FILLER_0_18_7
*693 FILLER_0_18_77
*694 FILLER_0_18_83
*695 FILLER_0_18_85
*696 FILLER_0_18_97
*697 FILLER_0_19_111
*698 FILLER_0_19_113
*699 FILLER_0_19_119
*700 FILLER_0_19_128
*701 FILLER_0_19_136
*702 FILLER_0_19_15
*703 FILLER_0_19_169
*704 FILLER_0_19_181
*705 FILLER_0_19_207
*706 FILLER_0_19_217
*707 FILLER_0_19_27
*708 FILLER_0_19_3
*709 FILLER_0_19_31
*710 FILLER_0_19_65
*711 FILLER_0_19_69
*712 FILLER_0_19_75
*713 FILLER_0_19_87
*714 FILLER_0_1_110
*715 FILLER_0_1_113
*716 FILLER_0_1_121
*717 FILLER_0_1_150
*718 FILLER_0_1_154
*719 FILLER_0_1_158
*720 FILLER_0_1_164
*721 FILLER_0_1_178
*722 FILLER_0_1_18
*723 FILLER_0_1_190
*724 FILLER_0_1_202
*725 FILLER_0_1_214
*726 FILLER_0_1_30
*727 FILLER_0_1_42
*728 FILLER_0_1_54
*729 FILLER_0_1_57
*730 FILLER_0_1_6
*731 FILLER_0_1_65
*732 FILLER_0_1_73
*733 FILLER_0_1_85
*734 FILLER_0_1_89
*735 FILLER_0_20_108
*736 FILLER_0_20_116
*737 FILLER_0_20_138
*738 FILLER_0_20_14
*739 FILLER_0_20_141
*740 FILLER_0_20_147
*741 FILLER_0_20_164
*742 FILLER_0_20_176
*743 FILLER_0_20_202
*744 FILLER_0_20_206
*745 FILLER_0_20_210
*746 FILLER_0_20_27
*747 FILLER_0_20_29
*748 FILLER_0_20_33
*749 FILLER_0_20_57
*750 FILLER_0_20_6
*751 FILLER_0_20_81
*752 FILLER_0_20_88
*753 FILLER_0_20_96
*754 FILLER_0_21_108
*755 FILLER_0_21_113
*756 FILLER_0_21_117
*757 FILLER_0_21_144
*758 FILLER_0_21_156
*759 FILLER_0_21_164
*760 FILLER_0_21_169
*761 FILLER_0_21_181
*762 FILLER_0_21_193
*763 FILLER_0_21_205
*764 FILLER_0_21_213
*765 FILLER_0_21_3
*766 FILLER_0_21_33
*767 FILLER_0_21_48
*768 FILLER_0_21_70
*769 FILLER_0_21_95
*770 FILLER_0_22_105
*771 FILLER_0_22_124
*772 FILLER_0_22_132
*773 FILLER_0_22_148
*774 FILLER_0_22_15
*775 FILLER_0_22_156
*776 FILLER_0_22_169
*777 FILLER_0_22_177
*778 FILLER_0_22_184
*779 FILLER_0_22_27
*780 FILLER_0_22_29
*781 FILLER_0_22_3
*782 FILLER_0_22_35
*783 FILLER_0_22_39
*784 FILLER_0_22_51
*785 FILLER_0_22_59
*786 FILLER_0_22_65
*787 FILLER_0_22_73
*788 FILLER_0_22_80
*789 FILLER_0_22_85
*790 FILLER_0_23_104
*791 FILLER_0_23_113
*792 FILLER_0_23_129
*793 FILLER_0_23_141
*794 FILLER_0_23_15
*795 FILLER_0_23_153
*796 FILLER_0_23_165
*797 FILLER_0_23_181
*798 FILLER_0_23_189
*799 FILLER_0_23_197
*800 FILLER_0_23_3
*801 FILLER_0_23_50
*802 FILLER_0_23_60
*803 FILLER_0_23_66
*804 FILLER_0_23_71
*805 FILLER_0_23_81
*806 FILLER_0_23_89
*807 FILLER_0_24_13
*808 FILLER_0_24_134
*809 FILLER_0_24_148
*810 FILLER_0_24_180
*811 FILLER_0_24_197
*812 FILLER_0_24_202
*813 FILLER_0_24_213
*814 FILLER_0_24_22
*815 FILLER_0_24_29
*816 FILLER_0_24_3
*817 FILLER_0_24_41
*818 FILLER_0_24_49
*819 FILLER_0_24_70
*820 FILLER_0_24_83
*821 FILLER_0_24_85
*822 FILLER_0_24_9
*823 FILLER_0_24_93
*824 FILLER_0_25_100
*825 FILLER_0_25_113
*826 FILLER_0_25_129
*827 FILLER_0_25_141
*828 FILLER_0_25_149
*829 FILLER_0_25_159
*830 FILLER_0_25_167
*831 FILLER_0_25_169
*832 FILLER_0_25_174
*833 FILLER_0_25_217
*834 FILLER_0_25_3
*835 FILLER_0_25_33
*836 FILLER_0_25_37
*837 FILLER_0_25_48
*838 FILLER_0_25_62
*839 FILLER_0_25_70
*840 FILLER_0_25_93
*841 FILLER_0_26_109
*842 FILLER_0_26_119
*843 FILLER_0_26_129
*844 FILLER_0_26_137
*845 FILLER_0_26_141
*846 FILLER_0_26_17
*847 FILLER_0_26_171
*848 FILLER_0_26_183
*849 FILLER_0_26_191
*850 FILLER_0_26_195
*851 FILLER_0_26_197
*852 FILLER_0_26_205
*853 FILLER_0_26_211
*854 FILLER_0_26_215
*855 FILLER_0_26_52
*856 FILLER_0_26_64
*857 FILLER_0_26_72
*858 FILLER_0_26_80
*859 FILLER_0_26_85
*860 FILLER_0_26_9
*861 FILLER_0_26_97
*862 FILLER_0_27_110
*863 FILLER_0_27_113
*864 FILLER_0_27_125
*865 FILLER_0_27_137
*866 FILLER_0_27_149
*867 FILLER_0_27_15
*868 FILLER_0_27_155
*869 FILLER_0_27_167
*870 FILLER_0_27_169
*871 FILLER_0_27_182
*872 FILLER_0_27_187
*873 FILLER_0_27_19
*874 FILLER_0_27_195
*875 FILLER_0_27_3
*876 FILLER_0_27_42
*877 FILLER_0_27_54
*878 FILLER_0_27_57
*879 FILLER_0_27_89
*880 FILLER_0_27_93
*881 FILLER_0_28_11
*882 FILLER_0_28_111
*883 FILLER_0_28_119
*884 FILLER_0_28_127
*885 FILLER_0_28_131
*886 FILLER_0_28_137
*887 FILLER_0_28_141
*888 FILLER_0_28_15
*889 FILLER_0_28_153
*890 FILLER_0_28_165
*891 FILLER_0_28_195
*892 FILLER_0_28_201
*893 FILLER_0_28_217
*894 FILLER_0_28_25
*895 FILLER_0_28_3
*896 FILLER_0_28_37
*897 FILLER_0_28_43
*898 FILLER_0_28_55
*899 FILLER_0_28_80
*900 FILLER_0_28_85
*901 FILLER_0_28_96
*902 FILLER_0_29_105
*903 FILLER_0_29_119
*904 FILLER_0_29_127
*905 FILLER_0_29_150
*906 FILLER_0_29_169
*907 FILLER_0_29_179
*908 FILLER_0_29_191
*909 FILLER_0_29_199
*910 FILLER_0_29_203
*911 FILLER_0_29_214
*912 FILLER_0_29_218
*913 FILLER_0_29_29
*914 FILLER_0_29_3
*915 FILLER_0_29_53
*916 FILLER_0_29_64
*917 FILLER_0_29_73
*918 FILLER_0_29_81
*919 FILLER_0_29_93
*920 FILLER_0_2_104
*921 FILLER_0_2_131
*922 FILLER_0_2_139
*923 FILLER_0_2_15
*924 FILLER_0_2_190
*925 FILLER_0_2_197
*926 FILLER_0_2_209
*927 FILLER_0_2_217
*928 FILLER_0_2_27
*929 FILLER_0_2_29
*930 FILLER_0_2_3
*931 FILLER_0_2_41
*932 FILLER_0_2_51
*933 FILLER_0_2_82
*934 FILLER_0_2_88
*935 FILLER_0_30_109
*936 FILLER_0_30_120
*937 FILLER_0_30_132
*938 FILLER_0_30_141
*939 FILLER_0_30_15
*940 FILLER_0_30_150
*941 FILLER_0_30_181
*942 FILLER_0_30_189
*943 FILLER_0_30_217
*944 FILLER_0_30_29
*945 FILLER_0_30_3
*946 FILLER_0_30_48
*947 FILLER_0_30_54
*948 FILLER_0_30_70
*949 FILLER_0_30_82
*950 FILLER_0_30_85
*951 FILLER_0_30_97
*952 FILLER_0_31_100
*953 FILLER_0_31_113
*954 FILLER_0_31_125
*955 FILLER_0_31_137
*956 FILLER_0_31_149
*957 FILLER_0_31_157
*958 FILLER_0_31_165
*959 FILLER_0_31_169
*960 FILLER_0_31_174
*961 FILLER_0_31_186
*962 FILLER_0_31_198
*963 FILLER_0_31_21
*964 FILLER_0_31_210
*965 FILLER_0_31_33
*966 FILLER_0_31_48
*967 FILLER_0_31_57
*968 FILLER_0_31_63
*969 FILLER_0_31_83
*970 FILLER_0_31_9
*971 FILLER_0_31_91
*972 FILLER_0_32_118
*973 FILLER_0_32_122
*974 FILLER_0_32_128
*975 FILLER_0_32_132
*976 FILLER_0_32_15
*977 FILLER_0_32_162
*978 FILLER_0_32_174
*979 FILLER_0_32_182
*980 FILLER_0_32_188
*981 FILLER_0_32_197
*982 FILLER_0_32_209
*983 FILLER_0_32_217
*984 FILLER_0_32_27
*985 FILLER_0_32_29
*986 FILLER_0_32_3
*987 FILLER_0_32_35
*988 FILLER_0_32_57
*989 FILLER_0_32_85
*990 FILLER_0_32_93
*991 FILLER_0_33_116
*992 FILLER_0_33_134
*993 FILLER_0_33_149
*994 FILLER_0_33_15
*995 FILLER_0_33_161
*996 FILLER_0_33_167
*997 FILLER_0_33_169
*998 FILLER_0_33_175
*999 FILLER_0_33_204
*1000 FILLER_0_33_21
*1001 FILLER_0_33_216
*1002 FILLER_0_33_3
*1003 FILLER_0_33_33
*1004 FILLER_0_33_45
*1005 FILLER_0_33_51
*1006 FILLER_0_33_55
*1007 FILLER_0_33_57
*1008 FILLER_0_33_69
*1009 FILLER_0_33_81
*1010 FILLER_0_33_87
*1011 FILLER_0_34_120
*1012 FILLER_0_34_132
*1013 FILLER_0_34_141
*1014 FILLER_0_34_15
*1015 FILLER_0_34_153
*1016 FILLER_0_34_165
*1017 FILLER_0_34_177
*1018 FILLER_0_34_189
*1019 FILLER_0_34_195
*1020 FILLER_0_34_197
*1021 FILLER_0_34_209
*1022 FILLER_0_34_217
*1023 FILLER_0_34_27
*1024 FILLER_0_34_29
*1025 FILLER_0_34_3
*1026 FILLER_0_34_41
*1027 FILLER_0_34_70
*1028 FILLER_0_34_83
*1029 FILLER_0_34_85
*1030 FILLER_0_34_97
*1031 FILLER_0_35_103
*1032 FILLER_0_35_111
*1033 FILLER_0_35_116
*1034 FILLER_0_35_124
*1035 FILLER_0_35_14
*1036 FILLER_0_35_156
*1037 FILLER_0_35_169
*1038 FILLER_0_35_181
*1039 FILLER_0_35_193
*1040 FILLER_0_35_205
*1041 FILLER_0_35_217
*1042 FILLER_0_35_26
*1043 FILLER_0_35_3
*1044 FILLER_0_35_38
*1045 FILLER_0_35_46
*1046 FILLER_0_35_52
*1047 FILLER_0_35_66
*1048 FILLER_0_35_7
*1049 FILLER_0_36_100
*1050 FILLER_0_36_113
*1051 FILLER_0_36_121
*1052 FILLER_0_36_125
*1053 FILLER_0_36_137
*1054 FILLER_0_36_141
*1055 FILLER_0_36_149
*1056 FILLER_0_36_153
*1057 FILLER_0_36_16
*1058 FILLER_0_36_165
*1059 FILLER_0_36_169
*1060 FILLER_0_36_177
*1061 FILLER_0_36_181
*1062 FILLER_0_36_193
*1063 FILLER_0_36_197
*1064 FILLER_0_36_205
*1065 FILLER_0_36_29
*1066 FILLER_0_36_37
*1067 FILLER_0_36_41
*1068 FILLER_0_36_53
*1069 FILLER_0_36_57
*1070 FILLER_0_36_65
*1071 FILLER_0_36_72
*1072 FILLER_0_36_85
*1073 FILLER_0_36_9
*1074 FILLER_0_36_93
*1075 FILLER_0_3_101
*1076 FILLER_0_3_111
*1077 FILLER_0_3_113
*1078 FILLER_0_3_128
*1079 FILLER_0_3_140
*1080 FILLER_0_3_144
*1081 FILLER_0_3_15
*1082 FILLER_0_3_156
*1083 FILLER_0_3_166
*1084 FILLER_0_3_180
*1085 FILLER_0_3_192
*1086 FILLER_0_3_204
*1087 FILLER_0_3_216
*1088 FILLER_0_3_27
*1089 FILLER_0_3_3
*1090 FILLER_0_3_70
*1091 FILLER_0_3_93
*1092 FILLER_0_4_109
*1093 FILLER_0_4_132
*1094 FILLER_0_4_15
*1095 FILLER_0_4_177
*1096 FILLER_0_4_189
*1097 FILLER_0_4_195
*1098 FILLER_0_4_197
*1099 FILLER_0_4_209
*1100 FILLER_0_4_217
*1101 FILLER_0_4_27
*1102 FILLER_0_4_29
*1103 FILLER_0_4_3
*1104 FILLER_0_4_41
*1105 FILLER_0_4_53
*1106 FILLER_0_4_57
*1107 FILLER_0_4_65
*1108 FILLER_0_4_71
*1109 FILLER_0_4_79
*1110 FILLER_0_4_83
*1111 FILLER_0_4_85
*1112 FILLER_0_4_97
*1113 FILLER_0_5_15
*1114 FILLER_0_5_153
*1115 FILLER_0_5_165
*1116 FILLER_0_5_177
*1117 FILLER_0_5_189
*1118 FILLER_0_5_201
*1119 FILLER_0_5_213
*1120 FILLER_0_5_27
*1121 FILLER_0_5_3
*1122 FILLER_0_5_39
*1123 FILLER_0_5_51
*1124 FILLER_0_5_55
*1125 FILLER_0_5_60
*1126 FILLER_0_5_66
*1127 FILLER_0_5_74
*1128 FILLER_0_5_78
*1129 FILLER_0_5_82
*1130 FILLER_0_5_90
*1131 FILLER_0_6_128
*1132 FILLER_0_6_141
*1133 FILLER_0_6_145
*1134 FILLER_0_6_153
*1135 FILLER_0_6_162
*1136 FILLER_0_6_171
*1137 FILLER_0_6_175
*1138 FILLER_0_6_197
*1139 FILLER_0_6_209
*1140 FILLER_0_6_21
*1141 FILLER_0_6_215
*1142 FILLER_0_6_25
*1143 FILLER_0_6_38
*1144 FILLER_0_6_46
*1145 FILLER_0_6_9
*1146 FILLER_0_7_100
*1147 FILLER_0_7_105
*1148 FILLER_0_7_111
*1149 FILLER_0_7_113
*1150 FILLER_0_7_125
*1151 FILLER_0_7_137
*1152 FILLER_0_7_149
*1153 FILLER_0_7_15
*1154 FILLER_0_7_161
*1155 FILLER_0_7_167
*1156 FILLER_0_7_169
*1157 FILLER_0_7_177
*1158 FILLER_0_7_183
*1159 FILLER_0_7_189
*1160 FILLER_0_7_197
*1161 FILLER_0_7_210
*1162 FILLER_0_7_218
*1163 FILLER_0_7_3
*1164 FILLER_0_7_47
*1165 FILLER_0_7_55
*1166 FILLER_0_7_57
*1167 FILLER_0_7_69
*1168 FILLER_0_7_96
*1169 FILLER_0_8_109
*1170 FILLER_0_8_121
*1171 FILLER_0_8_133
*1172 FILLER_0_8_139
*1173 FILLER_0_8_141
*1174 FILLER_0_8_15
*1175 FILLER_0_8_153
*1176 FILLER_0_8_167
*1177 FILLER_0_8_179
*1178 FILLER_0_8_195
*1179 FILLER_0_8_217
*1180 FILLER_0_8_27
*1181 FILLER_0_8_29
*1182 FILLER_0_8_3
*1183 FILLER_0_8_41
*1184 FILLER_0_8_46
*1185 FILLER_0_8_54
*1186 FILLER_0_8_71
*1187 FILLER_0_8_83
*1188 FILLER_0_8_85
*1189 FILLER_0_8_97
*1190 FILLER_0_9_101
*1191 FILLER_0_9_110
*1192 FILLER_0_9_113
*1193 FILLER_0_9_121
*1194 FILLER_0_9_145
*1195 FILLER_0_9_15
*1196 FILLER_0_9_151
*1197 FILLER_0_9_169
*1198 FILLER_0_9_181
*1199 FILLER_0_9_193
*1200 FILLER_0_9_205
*1201 FILLER_0_9_217
*1202 FILLER_0_9_27
*1203 FILLER_0_9_3
*1204 FILLER_0_9_33
*1205 FILLER_0_9_54
*1206 FILLER_0_9_57
*1207 FILLER_0_9_78
*1208 FILLER_0_9_90
*1209 FILLER_0_9_94
*1210 PHY_0
*1211 PHY_1
*1212 PHY_10
*1213 PHY_11
*1214 PHY_12
*1215 PHY_13
*1216 PHY_14
*1217 PHY_15
*1218 PHY_16
*1219 PHY_17
*1220 PHY_18
*1221 PHY_19
*1222 PHY_2
*1223 PHY_20
*1224 PHY_21
*1225 PHY_22
*1226 PHY_23
*1227 PHY_24
*1228 PHY_25
*1229 PHY_26
*1230 PHY_27
*1231 PHY_28
*1232 PHY_29
*1233 PHY_3
*1234 PHY_30
*1235 PHY_31
*1236 PHY_32
*1237 PHY_33
*1238 PHY_34
*1239 PHY_35
*1240 PHY_36
*1241 PHY_37
*1242 PHY_38
*1243 PHY_39
*1244 PHY_4
*1245 PHY_40
*1246 PHY_41
*1247 PHY_42
*1248 PHY_43
*1249 PHY_44
*1250 PHY_45
*1251 PHY_46
*1252 PHY_47
*1253 PHY_48
*1254 PHY_49
*1255 PHY_5
*1256 PHY_50
*1257 PHY_51
*1258 PHY_52
*1259 PHY_53
*1260 PHY_54
*1261 PHY_55
*1262 PHY_56
*1263 PHY_57
*1264 PHY_58
*1265 PHY_59
*1266 PHY_6
*1267 PHY_60
*1268 PHY_61
*1269 PHY_62
*1270 PHY_63
*1271 PHY_64
*1272 PHY_65
*1273 PHY_66
*1274 PHY_67
*1275 PHY_68
*1276 PHY_69
*1277 PHY_7
*1278 PHY_70
*1279 PHY_71
*1280 PHY_72
*1281 PHY_73
*1282 PHY_8
*1283 PHY_9
*1284 TAP_100
*1285 TAP_101
*1286 TAP_102
*1287 TAP_103
*1288 TAP_104
*1289 TAP_105
*1290 TAP_106
*1291 TAP_107
*1292 TAP_108
*1293 TAP_109
*1294 TAP_110
*1295 TAP_111
*1296 TAP_112
*1297 TAP_113
*1298 TAP_114
*1299 TAP_115
*1300 TAP_116
*1301 TAP_117
*1302 TAP_118
*1303 TAP_119
*1304 TAP_120
*1305 TAP_121
*1306 TAP_122
*1307 TAP_123
*1308 TAP_124
*1309 TAP_125
*1310 TAP_126
*1311 TAP_127
*1312 TAP_128
*1313 TAP_129
*1314 TAP_130
*1315 TAP_131
*1316 TAP_132
*1317 TAP_133
*1318 TAP_134
*1319 TAP_135
*1320 TAP_136
*1321 TAP_137
*1322 TAP_138
*1323 TAP_139
*1324 TAP_140
*1325 TAP_141
*1326 TAP_142
*1327 TAP_143
*1328 TAP_144
*1329 TAP_145
*1330 TAP_146
*1331 TAP_147
*1332 TAP_148
*1333 TAP_149
*1334 TAP_150
*1335 TAP_151
*1336 TAP_152
*1337 TAP_153
*1338 TAP_154
*1339 TAP_155
*1340 TAP_156
*1341 TAP_157
*1342 TAP_158
*1343 TAP_159
*1344 TAP_160
*1345 TAP_161
*1346 TAP_162
*1347 TAP_163
*1348 TAP_164
*1349 TAP_165
*1350 TAP_166
*1351 TAP_167
*1352 TAP_168
*1353 TAP_169
*1354 TAP_170
*1355 TAP_171
*1356 TAP_172
*1357 TAP_173
*1358 TAP_174
*1359 TAP_175
*1360 TAP_176
*1361 TAP_177
*1362 TAP_178
*1363 TAP_179
*1364 TAP_180
*1365 TAP_181
*1366 TAP_182
*1367 TAP_183
*1368 TAP_184
*1369 TAP_185
*1370 TAP_186
*1371 TAP_187
*1372 TAP_188
*1373 TAP_189
*1374 TAP_190
*1375 TAP_191
*1376 TAP_192
*1377 TAP_193
*1378 TAP_194
*1379 TAP_195
*1380 TAP_196
*1381 TAP_197
*1382 TAP_198
*1383 TAP_199
*1384 TAP_200
*1385 TAP_201
*1386 TAP_202
*1387 TAP_203
*1388 TAP_204
*1389 TAP_205
*1390 TAP_206
*1391 TAP_207
*1392 TAP_208
*1393 TAP_209
*1394 TAP_74
*1395 TAP_75
*1396 TAP_76
*1397 TAP_77
*1398 TAP_78
*1399 TAP_79
*1400 TAP_80
*1401 TAP_81
*1402 TAP_82
*1403 TAP_83
*1404 TAP_84
*1405 TAP_85
*1406 TAP_86
*1407 TAP_87
*1408 TAP_88
*1409 TAP_89
*1410 TAP_90
*1411 TAP_91
*1412 TAP_92
*1413 TAP_93
*1414 TAP_94
*1415 TAP_95
*1416 TAP_96
*1417 TAP_97
*1418 TAP_98
*1419 TAP_99
*1420 _347_
*1421 _348_
*1422 _349_
*1423 _350_
*1424 _351_
*1425 _352_
*1426 _353_
*1427 _354_
*1428 _355_
*1429 _356_
*1430 _357_
*1431 _358_
*1432 _359_
*1433 _360_
*1434 _361_
*1435 _362_
*1436 _363_
*1437 _364_
*1438 _365_
*1439 _366_
*1440 _367_
*1441 _368_
*1442 _369_
*1443 _370_
*1444 _371_
*1445 _372_
*1446 _373_
*1447 _374_
*1448 _375_
*1449 _376_
*1450 _377_
*1451 _378_
*1452 _379_
*1453 _380_
*1454 _381_
*1455 _382_
*1456 _383_
*1457 _384_
*1458 _385_
*1459 _386_
*1460 _387_
*1461 _388_
*1462 _389_
*1463 _390_
*1464 _391_
*1465 _392_
*1466 _393_
*1467 _394_
*1468 _395_
*1469 _396_
*1470 _397_
*1471 _398_
*1472 _399_
*1473 _400_
*1474 _401_
*1475 _402_
*1476 _403_
*1477 _404_
*1478 _405_
*1479 _406_
*1480 _407_
*1481 _408_
*1482 _409_
*1483 _410_
*1484 _411_
*1485 _412_
*1486 _413_
*1487 _414_
*1488 _415_
*1489 _416_
*1490 _417_
*1491 _418_
*1492 _419_
*1493 _420_
*1494 _421_
*1495 _422_
*1496 _423_
*1497 _424_
*1498 _425_
*1499 _426_
*1500 _427_
*1501 _428_
*1502 _429_
*1503 _430_
*1504 _431_
*1505 _432_
*1506 _433_
*1507 _434_
*1508 _435_
*1509 _436_
*1510 _437_
*1511 _438_
*1512 _439_
*1513 _440_
*1514 _441_
*1515 _442_
*1516 _443_
*1517 _444_
*1518 _445_
*1519 _446_
*1520 _447_
*1521 _448_
*1522 _449_
*1523 _450_
*1524 _451_
*1525 _452_
*1526 _453_
*1527 _454_
*1528 _455_
*1529 _456_
*1530 _457_
*1531 _458_
*1532 _459_
*1533 _460_
*1534 _461_
*1535 _462_
*1536 _463_
*1537 _464_
*1538 _465_
*1539 _466_
*1540 _467_
*1541 _468_
*1542 _469_
*1543 _470_
*1544 _471_
*1545 _472_
*1546 _473_
*1547 _474_
*1548 _475_
*1549 _476_
*1550 _477_
*1551 _478_
*1552 _479_
*1553 _480_
*1554 _481_
*1555 _482_
*1556 _483_
*1557 _484_
*1558 _485_
*1559 _486_
*1560 _487_
*1561 _488_
*1562 _489_
*1563 _490_
*1564 _491_
*1565 _492_
*1566 _493_
*1567 _494_
*1568 _495_
*1569 _496_
*1570 _497_
*1571 _498_
*1572 _499_
*1573 _500_
*1574 _501_
*1575 _502_
*1576 _503_
*1577 _504_
*1578 _505_
*1579 _506_
*1580 _507_
*1581 _508_
*1582 _509_
*1583 _510_
*1584 _511_
*1585 _512_
*1586 _513_
*1587 _514_
*1588 _515_
*1589 _516_
*1590 _517_
*1591 _518_
*1592 _519_
*1593 _520_
*1594 _521_
*1595 _522_
*1596 _523_
*1597 _524_
*1598 _525_
*1599 _526_
*1600 _527_
*1601 _528_
*1602 _529_
*1603 _530_
*1604 _531_
*1605 _532_
*1606 _533_
*1607 _534_
*1608 _535_
*1609 _536_
*1610 _537_
*1611 _538_
*1612 _539_
*1613 _540_
*1614 _541_
*1615 _542_
*1616 _543_
*1617 _544_
*1618 _545_
*1619 _546_
*1620 _547_
*1621 _548_
*1622 _549_
*1623 _550_
*1624 _551_
*1625 _552_
*1626 _553_
*1627 _554_
*1628 _555_
*1629 _556_
*1630 _557_
*1631 _558_
*1632 _559_
*1633 _560_
*1634 _561_
*1635 _562_
*1636 _563_
*1637 _564_
*1638 _565_
*1639 _566_
*1640 _567_
*1641 _568_
*1642 _569_
*1643 _570_
*1644 _571_
*1645 _572_
*1646 _573_
*1647 _574_
*1648 _575_
*1649 _576_
*1650 _577_
*1651 _578_
*1652 _579_
*1653 _580_
*1654 _581_
*1655 _582_
*1656 _583_
*1657 _584_
*1658 _585_
*1659 _586_
*1660 _587_
*1661 _588_
*1662 _589_
*1663 _590_
*1664 _591_
*1665 _592_
*1666 _593_
*1667 _594_
*1668 _595_
*1669 _596_
*1670 _597_
*1671 _598_
*1672 _599_
*1673 _600_
*1674 _601_
*1675 _602_
*1676 _603_
*1677 _604_
*1678 _605_
*1679 _606_
*1680 _607_
*1681 _608_
*1682 _609_
*1683 _610_
*1684 _611_
*1685 _612_
*1686 _613_
*1687 _614_
*1688 _615_
*1689 _616_
*1690 _617_
*1691 _618_
*1692 _619_
*1693 _620_
*1694 _621_
*1695 _622_
*1696 _623_
*1697 _624_
*1698 _625_
*1699 _626_
*1700 _627_
*1701 _628_
*1702 _629_
*1703 _630_
*1704 _631_
*1705 _632_
*1706 _633_
*1707 _634_
*1708 _635_
*1709 _636_
*1710 _637_
*1711 _638_
*1712 _639_
*1713 _640_
*1714 _641_
*1715 _642_
*1716 _643_
*1717 _644_
*1718 _645_
*1719 _646_
*1720 _647_
*1721 _648_
*1722 _649_
*1723 _650_
*1724 _651_
*1725 _652_
*1726 _653_
*1727 _654_
*1728 _655_
*1729 _656_
*1730 _657_
*1731 _658_
*1732 _659_
*1733 _660_
*1734 _661_
*1735 _662_
*1736 _663_
*1737 _664_
*1738 _665_
*1739 _666_
*1740 _667_
*1741 _668_
*1742 _669_
*1743 _670_
*1744 _671_
*1745 _672_
*1746 _673_
*1747 _674_
*1748 _675_
*1749 _676_
*1750 _677_
*1751 _678_
*1752 _679_
*1753 _680_
*1754 _681_
*1755 _682_
*1756 _683_
*1757 _684_
*1758 _685_
*1759 _686_
*1760 _687_
*1761 _688_
*1762 _689_
*1763 _690_
*1764 _691_
*1765 _692_
*1766 _693_
*1767 _694_
*1768 _695_
*1769 _696_
*1770 _697_
*1771 _698_
*1772 _699_
*1773 _700_
*1774 _701_
*1775 _702_
*1776 _703_
*1777 _704_
*1778 _705_
*1779 _706_
*1780 _707_
*1781 _708_
*1782 _709_
*1783 _710_
*1784 _711_
*1785 _712_
*1786 _713_
*1787 _714_
*1788 _715_
*1789 _716_
*1790 _717_
*1791 _718_
*1792 _719_
*1793 _720_
*1794 _721_
*1795 _722_
*1796 _723_
*1797 _724_
*1798 _725_
*1799 _726_
*1800 _727_
*1801 _728_
*1802 _729_
*1803 _730_
*1804 _731_
*1805 _732_
*1806 _733_
*1807 _734_
*1808 _735_
*1809 _736_
*1810 _737_
*1811 _738_
*1812 _739_
*1813 _740_
*1814 _741_
*1815 _742_
*1816 _743_
*1817 _744_
*1818 _745_
*1819 _746_
*1820 _747_
*1821 clkbuf_0_clk
*1822 clkbuf_2_0__f_clk
*1823 clkbuf_2_1__f_clk
*1824 clkbuf_2_2__f_clk
*1825 clkbuf_2_3__f_clk
*1826 hold1
*1827 hold10
*1828 hold11
*1829 hold12
*1830 hold13
*1831 hold14
*1832 hold15
*1833 hold16
*1834 hold17
*1835 hold18
*1836 hold19
*1837 hold2
*1838 hold20
*1839 hold21
*1840 hold22
*1841 hold23
*1842 hold24
*1843 hold25
*1844 hold26
*1845 hold27
*1846 hold28
*1847 hold29
*1848 hold3
*1849 hold30
*1850 hold31
*1851 hold32
*1852 hold33
*1853 hold4
*1854 hold5
*1855 hold6
*1856 hold7
*1857 hold8
*1858 hold9
*1859 input1
*1860 input10
*1861 input11
*1862 input12
*1863 input13
*1864 input14
*1865 input15
*1866 input16
*1867 input17
*1868 input18
*1869 input2
*1870 input3
*1871 input4
*1872 input5
*1873 input6
*1874 input7
*1875 input8
*1876 input9
*1877 max_cap1
*1878 output19
*1879 output20
*1880 output21
*1881 output22
*1882 output23
*1883 output24
*1884 output25
*1885 output26
*1886 output27
*1887 output28
*1888 output29
*1889 output30
*1890 output31
*1891 output32
*1892 output33
*1893 output34
*1894 output35
*1895 wire36

*PORTS
clk I
done O
multiplicand[0] I
multiplicand[1] I
multiplicand[2] I
multiplicand[3] I
multiplicand[4] I
multiplicand[5] I
multiplicand[6] I
multiplicand[7] I
multiplier[0] I
multiplier[1] I
multiplier[2] I
multiplier[3] I
multiplier[4] I
multiplier[5] I
multiplier[6] I
multiplier[7] I
product[0] O
product[10] O
product[11] O
product[12] O
product[13] O
product[14] O
product[15] O
product[1] O
product[2] O
product[3] O
product[4] O
product[5] O
product[6] O
product[7] O
product[8] O
product[9] O
rst I
start I

*D_NET *3 0.0208251
*CONN
*P clk I
*I *1821:A I *D sky130_fd_sc_hd__clkbuf_16
*CAP
1 clk 0.00504965
2 *1821:A 0
3 *3:23 0.000485596
4 *3:13 0.00553524
5 *3:13 product[13] 0
6 *3:13 *15:15 0
7 *3:13 *360:24 0.000614177
8 *3:13 *386:20 0.00189512
9 *3:13 *395:24 0.00483774
10 *3:13 *408:28 0
11 *3:13 *491:30 0.00213132
12 *3:23 *172:10 8.43717e-05
13 *3:23 *172:21 0.000118807
14 *3:23 *228:29 0
15 *3:23 *238:10 7.31082e-05
*RES
1 clk *3:13 46.4374 
2 *3:13 *3:23 37.0456 
3 *3:23 *1821:A 23 
*END

*D_NET *4 0.000610272
*CONN
*P done O
*I *1878:X O *D sky130_fd_sc_hd__clkbuf_4
*CAP
1 done 0.000299112
2 *1878:X 0.000299112
3 done *1878:A 1.20476e-05
*RES
1 *1878:X done 47.7004 
*END

*D_NET *5 0.00109044
*CONN
*P multiplicand[0] I
*I *1859:A I *D sky130_fd_sc_hd__buf_1
*CAP
1 multiplicand[0] 0.000545222
2 *1859:A 0.000545222
*RES
1 multiplicand[0] *1859:A 49.9314 
*END

*D_NET *6 0.00104885
*CONN
*P multiplicand[1] I
*I *1869:A I *D sky130_fd_sc_hd__clkbuf_1
*CAP
1 multiplicand[1] 0.000484977
2 *1869:A 0.000484977
3 *1869:A *393:6 7.88926e-05
*RES
1 multiplicand[1] *1869:A 48.2743 
*END

*D_NET *7 0.00102945
*CONN
*P multiplicand[2] I
*I *1870:A I *D sky130_fd_sc_hd__clkbuf_1
*CAP
1 multiplicand[2] 0.000494383
2 *1870:A 0.000494383
3 *1870:A *413:12 4.06849e-05
*RES
1 multiplicand[2] *1870:A 48.2743 
*END

*D_NET *8 0.0012248
*CONN
*P multiplicand[3] I
*I *1871:A I *D sky130_fd_sc_hd__clkbuf_1
*CAP
1 multiplicand[3] 0.000612402
2 *1871:A 0
3 *8:9 0.000612402
*RES
1 multiplicand[3] *8:9 27.7393 
2 *8:9 *1871:A 23 
*END

*D_NET *9 0.000757386
*CONN
*P multiplicand[4] I
*I *1872:A I *D sky130_fd_sc_hd__clkbuf_1
*CAP
1 multiplicand[4] 0.000327712
2 *1872:A 0.000327712
3 *1872:A *387:140 5.07359e-05
4 *1872:A *435:6 5.12254e-05
*RES
1 multiplicand[4] *1872:A 49.2332 
*END

*D_NET *10 0.000802527
*CONN
*P multiplicand[5] I
*I *1873:A I *D sky130_fd_sc_hd__clkbuf_1
*CAP
1 multiplicand[5] 0.000401264
2 *1873:A 0
3 *10:13 0.000401264
4 *10:13 *110:12 0
*RES
1 multiplicand[5] *10:13 28.8903 
2 *10:13 *1873:A 23 
*END

*D_NET *11 0.000644573
*CONN
*P multiplicand[6] I
*I *1874:A I *D sky130_fd_sc_hd__clkbuf_1
*CAP
1 multiplicand[6] 0.000322286
2 *1874:A 0.000322286
3 *1874:A *1855:A 0
4 *1874:A *395:10 0
*RES
1 multiplicand[6] *1874:A 49.9876 
*END

*D_NET *12 0.00195918
*CONN
*P multiplicand[7] I
*I *1875:A I *D sky130_fd_sc_hd__clkbuf_1
*CAP
1 multiplicand[7] 0.00097959
2 *1875:A 0
3 *12:11 0.00097959
*RES
1 multiplicand[7] *12:11 35.5071 
2 *12:11 *1875:A 23 
*END

*D_NET *13 0.00121844
*CONN
*P multiplier[0] I
*I *1876:A I *D sky130_fd_sc_hd__clkbuf_1
*CAP
1 multiplier[0] 0.000593076
2 *1876:A 0
3 *13:9 0.000593076
4 *13:9 *460:8 3.22879e-05
*RES
1 multiplier[0] *13:9 27.7393 
2 *13:9 *1876:A 23 
*END

*D_NET *14 0.000570159
*CONN
*P multiplier[1] I
*I *1860:A I *D sky130_fd_sc_hd__buf_1
*CAP
1 multiplier[1] 0.00028508
2 *1860:A 0.00028508
*RES
1 multiplier[1] *1860:A 49.881 
*END

*D_NET *15 0.00256275
*CONN
*P multiplier[2] I
*I *1861:A I *D sky130_fd_sc_hd__buf_1
*CAP
1 multiplier[2] 0.00118082
2 *1861:A 0
3 *15:15 0.00118082
4 *15:15 *393:6 0.000201109
5 *3:13 *15:15 0
*RES
1 multiplier[2] *15:15 41.0119 
2 *15:15 *1861:A 23 
*END

*D_NET *16 0.000724817
*CONN
*P multiplier[3] I
*I *1862:A I *D sky130_fd_sc_hd__clkbuf_1
*CAP
1 multiplier[3] 0.000333887
2 *1862:A 0
3 *16:13 0.000333887
4 *16:13 *18:9 0
5 *16:13 *394:10 5.70419e-05
*RES
1 multiplier[3] *16:13 28.186 
2 *16:13 *1862:A 23 
*END

*D_NET *17 0.000718541
*CONN
*P multiplier[4] I
*I *1863:A I *D sky130_fd_sc_hd__buf_1
*CAP
1 multiplier[4] 0.00035496
2 *1863:A 0
3 *17:15 0.00035496
4 *17:15 *395:10 8.62073e-06
5 *17:15 *415:27 0
*RES
1 multiplier[4] *17:15 27.1978 
2 *17:15 *1863:A 23 
*END

*D_NET *18 0.001617
*CONN
*P multiplier[5] I
*I *1864:A I *D sky130_fd_sc_hd__clkbuf_1
*CAP
1 multiplier[5] 0.000788156
2 *1864:A 0
3 *18:9 0.000788156
4 *18:9 *396:6 4.06849e-05
5 *16:13 *18:9 0
*RES
1 multiplier[5] *18:9 31.9443 
2 *18:9 *1864:A 23 
*END

*D_NET *19 0.000717332
*CONN
*P multiplier[6] I
*I *1865:A I *D sky130_fd_sc_hd__buf_1
*CAP
1 multiplier[6] 0.000352624
2 *1865:A 0
3 *19:15 0.000352624
4 *19:15 *397:8 7.17358e-06
5 *19:15 *415:21 4.91172e-06
*RES
1 multiplier[6] *19:15 27.1978 
2 *19:15 *1865:A 23 
*END

*D_NET *20 0.00121844
*CONN
*P multiplier[7] I
*I *1866:A I *D sky130_fd_sc_hd__clkbuf_1
*CAP
1 multiplier[7] 0.000593076
2 *1866:A 0
3 *20:9 0.000593076
4 *20:9 *398:8 3.22879e-05
*RES
1 multiplier[7] *20:9 27.7393 
2 *20:9 *1866:A 23 
*END

*D_NET *21 0.00060858
*CONN
*P product[0] O
*I *1879:X O *D sky130_fd_sc_hd__clkbuf_4
*CAP
1 product[0] 0.00030429
2 *1879:X 0.00030429
*RES
1 *1879:X product[0] 47.2507 
*END

*D_NET *22 0.00141234
*CONN
*P product[10] O
*I *1880:X O *D sky130_fd_sc_hd__clkbuf_4
*CAP
1 product[10] 0.000500941
2 *1880:X 8.9927e-05
3 *22:8 0.000590868
4 product[10] *37:13 0
5 *22:8 *37:13 0.000230604
*RES
1 *1880:X *22:8 40.5271 
2 *22:8 product[10] 10.8129 
*END

*D_NET *23 0.000796879
*CONN
*P product[11] O
*I *1881:X O *D sky130_fd_sc_hd__clkbuf_4
*CAP
1 product[11] 0.000398439
2 *1881:X 0.000398439
*RES
1 *1881:X product[11] 46.7621 
*END

*D_NET *24 0.00129686
*CONN
*P product[12] O
*I *1882:X O *D sky130_fd_sc_hd__clkbuf_4
*CAP
1 product[12] 0.000500941
2 *1882:X 0.000147486
3 *24:8 0.000648428
*RES
1 *1882:X *24:8 40.5271 
2 *24:8 product[12] 10.8129 
*END

*D_NET *25 0.000531207
*CONN
*P product[13] O
*I *1883:X O *D sky130_fd_sc_hd__buf_2
*CAP
1 product[13] 0.000265603
2 *1883:X 0.000265603
3 *3:13 product[13] 0
*RES
1 *1883:X product[13] 47.1648 
*END

*D_NET *26 0.000740866
*CONN
*P product[14] O
*I *1884:X O *D sky130_fd_sc_hd__clkbuf_4
*CAP
1 product[14] 0.000370433
2 *1884:X 0.000370433
*RES
1 *1884:X product[14] 45.9957 
*END

*D_NET *27 0.000796879
*CONN
*P product[15] O
*I *1885:X O *D sky130_fd_sc_hd__clkbuf_4
*CAP
1 product[15] 0.000398439
2 *1885:X 0.000398439
*RES
1 *1885:X product[15] 46.7621 
*END

*D_NET *28 0.000611008
*CONN
*P product[1] O
*I *1886:X O *D sky130_fd_sc_hd__clkbuf_4
*CAP
1 product[1] 0.000305504
2 *1886:X 0.000305504
*RES
1 *1886:X product[1] 47.2507 
*END

*D_NET *29 0.000641371
*CONN
*P product[2] O
*I *1887:X O *D sky130_fd_sc_hd__clkbuf_4
*CAP
1 product[2] 0.000295552
2 *1887:X 0.000295552
3 product[2] *395:12 5.02657e-05
*RES
1 *1887:X product[2] 48.0525 
*END

*D_NET *30 0.000796879
*CONN
*P product[3] O
*I *1888:X O *D sky130_fd_sc_hd__clkbuf_4
*CAP
1 product[3] 0.000398439
2 *1888:X 0.000398439
*RES
1 *1888:X product[3] 46.7621 
*END

*D_NET *31 0.000739842
*CONN
*P product[4] O
*I *1889:X O *D sky130_fd_sc_hd__clkbuf_4
*CAP
1 product[4] 9.83601e-05
2 *1889:X 0.000261036
3 *31:12 0.000359396
4 *31:12 *414:25 2.10502e-05
*RES
1 *1889:X *31:12 49.8011 
2 *31:12 product[4] 0.328533 
*END

*D_NET *32 0.000673986
*CONN
*P product[5] O
*I *1890:X O *D sky130_fd_sc_hd__buf_2
*CAP
1 product[5] 0.000330622
2 *1890:X 0.000330622
3 product[5] *415:27 1.27424e-05
*RES
1 *1890:X product[5] 47.1648 
*END

*D_NET *33 0.00129686
*CONN
*P product[6] O
*I *1891:X O *D sky130_fd_sc_hd__clkbuf_4
*CAP
1 product[6] 0.000500941
2 *1891:X 0.000147486
3 *33:8 0.000648428
*RES
1 *1891:X *33:8 40.5271 
2 *33:8 product[6] 10.8129 
*END

*D_NET *34 0.00129911
*CONN
*P product[7] O
*I *1892:X O *D sky130_fd_sc_hd__clkbuf_4
*CAP
1 product[7] 0.000502179
2 *1892:X 0.000147379
3 *34:8 0.000649557
*RES
1 *1892:X *34:8 40.5271 
2 *34:8 product[7] 10.8129 
*END

*D_NET *35 0.00102955
*CONN
*P product[8] O
*I *1893:X O *D sky130_fd_sc_hd__clkbuf_4
*CAP
1 product[8] 0.000481057
2 *1893:X 0.000481057
3 product[8] *1893:A 5.41385e-05
4 product[8] *393:6 1.32939e-05
*RES
1 *1893:X product[8] 47.57 
*END

*D_NET *36 0.000920028
*CONN
*P product[9] O
*I *1894:X O *D sky130_fd_sc_hd__clkbuf_4
*CAP
1 product[9] 0.000453858
2 *1894:X 0.000453858
3 product[9] *1803:CLK 1.23106e-05
4 product[9] *339:88 0
*RES
1 *1894:X product[9] 47.8604 
*END

*D_NET *37 0.00312052
*CONN
*P rst I
*I *1867:A I *D sky130_fd_sc_hd__clkbuf_1
*CAP
1 rst 0.00129055
2 *1867:A 0
3 *37:13 0.00129055
4 *37:13 *392:18 0.000308813
5 product[10] *37:13 0
6 *22:8 *37:13 0.000230604
*RES
1 rst *37:13 43.3055 
2 *37:13 *1867:A 23 
*END

*D_NET *38 0.00105623
*CONN
*P start I
*I *1868:A I *D sky130_fd_sc_hd__clkbuf_4
*CAP
1 start 0.000528114
2 *1868:A 0.000528114
3 *1868:A *1749:A 0
4 *1868:A *415:25 0
*RES
1 start *1868:A 49.0441 
*END

*D_NET *39 0.00068806
*CONN
*I *1771:D I *D sky130_fd_sc_hd__dfrtp_2
*I *1706:Y O *D sky130_fd_sc_hd__a21oi_1
*CAP
1 *1771:D 0
2 *1706:Y 0.000135607
3 *39:10 0.000135607
4 *39:10 *1706:A2 4.6373e-05
5 *39:10 *1771:CLK 0.000181919
6 *39:10 *163:134 0.000188555
*RES
1 *1706:Y *39:10 27.1221 
2 *39:10 *1771:D 23 
*END

*D_NET *40 0.00111612
*CONN
*I *1767:RESET_B I *D sky130_fd_sc_hd__dfrtp_1
*I *1709:Y O *D sky130_fd_sc_hd__inv_2
*CAP
1 *1767:RESET_B 3.33939e-05
2 *1709:Y 0.000301887
3 *40:10 0.000335281
4 *1767:RESET_B *1767:CLK 2.55762e-05
5 *40:10 *1858:A 4.89774e-05
6 *40:10 *339:16 5.80963e-05
7 *40:10 *377:18 0.000312903
*RES
1 *1709:Y *40:10 43.0336 
2 *40:10 *1767:RESET_B 15.5489 
*END

*D_NET *41 0.000820205
*CONN
*I *1768:RESET_B I *D sky130_fd_sc_hd__dfrtp_1
*I *1710:Y O *D sky130_fd_sc_hd__inv_2
*CAP
1 *1768:RESET_B 0
2 *1710:Y 0.000154168
3 *41:8 0.000154168
4 *41:8 *384:153 0.000412601
5 *41:8 *400:10 0
6 *41:8 *495:10 4.83778e-05
7 *41:8 *495:21 5.08899e-05
*RES
1 *1710:Y *41:8 43.4271 
2 *41:8 *1768:RESET_B 15 
*END

*D_NET *42 0.00044419
*CONN
*I *1769:RESET_B I *D sky130_fd_sc_hd__dfrtp_1
*I *1711:Y O *D sky130_fd_sc_hd__inv_2
*CAP
1 *1769:RESET_B 0
2 *1711:Y 0.000129469
3 *42:10 0.000129469
4 *42:10 *381:100 3.19287e-05
5 *42:10 *415:27 5.28455e-05
6 *42:10 *422:14 0.000100477
*RES
1 *1711:Y *42:10 40.6514 
2 *42:10 *1769:RESET_B 15 
*END

*D_NET *43 0.00110419
*CONN
*I *1770:RESET_B I *D sky130_fd_sc_hd__dfrtp_1
*I *1712:Y O *D sky130_fd_sc_hd__inv_2
*CAP
1 *1770:RESET_B 0.000326641
2 *1712:Y 0.000326641
3 *1770:RESET_B *1712:A 0.000185434
4 *1770:RESET_B *381:90 0.000265477
*RES
1 *1712:Y *1770:RESET_B 29.2661 
*END

*D_NET *44 0.000568175
*CONN
*I *1771:RESET_B I *D sky130_fd_sc_hd__dfrtp_2
*I *1713:Y O *D sky130_fd_sc_hd__inv_2
*CAP
1 *1771:RESET_B 0
2 *1713:Y 0.000124928
3 *44:10 0.000124928
4 *44:10 *360:87 9.77611e-05
5 *44:10 *381:56 6.17437e-06
6 *44:10 *381:71 0.000214382
*RES
1 *1713:Y *44:10 41.2314 
2 *44:10 *1771:RESET_B 15 
*END

*D_NET *45 0.000434036
*CONN
*I *1772:RESET_B I *D sky130_fd_sc_hd__dfrtp_4
*I *1714:Y O *D sky130_fd_sc_hd__inv_2
*CAP
1 *1772:RESET_B 0
2 *1714:Y 0.000169923
3 *45:10 0.000169923
4 *45:10 *381:116 9.41891e-05
*RES
1 *1714:Y *45:10 41.2314 
2 *45:10 *1772:RESET_B 15 
*END

*D_NET *46 0.000628495
*CONN
*I *1773:RESET_B I *D sky130_fd_sc_hd__dfrtp_1
*I *1715:Y O *D sky130_fd_sc_hd__inv_2
*CAP
1 *1773:RESET_B 0
2 *1715:Y 0.000219413
3 *46:10 0.000219413
4 *46:10 *421:12 0.000189669
5 *46:10 *459:10 0
*RES
1 *1715:Y *46:10 41.6043 
2 *46:10 *1773:RESET_B 15 
*END

*D_NET *47 0.000563138
*CONN
*I *1774:RESET_B I *D sky130_fd_sc_hd__dfrtp_1
*I *1716:Y O *D sky130_fd_sc_hd__inv_2
*CAP
1 *1774:RESET_B 0
2 *1716:Y 9.6008e-05
3 *47:10 9.6008e-05
4 *47:10 *1694:A 2.95423e-05
5 *47:10 *382:30 0.000169674
6 *47:10 *384:12 0.000171906
*RES
1 *1716:Y *47:10 40.8793 
2 *47:10 *1774:RESET_B 15 
*END

*D_NET *48 0.00112414
*CONN
*I *1775:RESET_B I *D sky130_fd_sc_hd__dfrtp_1
*I *1717:Y O *D sky130_fd_sc_hd__inv_2
*CAP
1 *1775:RESET_B 0.000299182
2 *1717:Y 0.000299182
3 *1775:RESET_B *381:37 0.000525771
*RES
1 *1717:Y *1775:RESET_B 29.2661 
*END

*D_NET *49 0.000730229
*CONN
*I *1776:RESET_B I *D sky130_fd_sc_hd__dfrtp_1
*I *1718:Y O *D sky130_fd_sc_hd__inv_2
*CAP
1 *1776:RESET_B 0
2 *1718:Y 0.000248064
3 *49:10 0.000248064
4 *49:10 *1845:A 0
5 *49:10 *450:12 0.000234102
*RES
1 *1718:Y *49:10 42.0807 
2 *49:10 *1776:RESET_B 15 
*END

*D_NET *50 0.000425422
*CONN
*I *1777:RESET_B I *D sky130_fd_sc_hd__dfrtp_1
*I *1720:Y O *D sky130_fd_sc_hd__inv_2
*CAP
1 *1777:RESET_B 0
2 *1720:Y 0.000131372
3 *50:10 0.000131372
4 *50:10 *1720:A 0.000109374
5 *50:10 *103:10 0
6 *50:10 *439:10 0
7 *50:10 *487:39 5.3304e-05
*RES
1 *1720:Y *50:10 40.175 
2 *50:10 *1777:RESET_B 15 
*END

*D_NET *51 0.000458051
*CONN
*I *1778:RESET_B I *D sky130_fd_sc_hd__dfrtp_1
*I *1721:Y O *D sky130_fd_sc_hd__inv_2
*CAP
1 *1778:RESET_B 0.000120342
2 *1721:Y 0.000120342
3 *1778:RESET_B *1778:CLK 1.94335e-05
4 *1778:RESET_B *382:16 5.79559e-05
5 *1778:RESET_B *382:30 0.000139977
*RES
1 *1721:Y *1778:RESET_B 25.4546 
*END

*D_NET *52 0.000376964
*CONN
*I *1779:RESET_B I *D sky130_fd_sc_hd__dfrtp_1
*I *1722:Y O *D sky130_fd_sc_hd__inv_2
*CAP
1 *1779:RESET_B 0
2 *1722:Y 8.92587e-05
3 *52:8 8.92587e-05
4 *52:8 *1722:A 0.000198447
*RES
1 *1722:Y *52:8 40.61 
2 *52:8 *1779:RESET_B 15 
*END

*D_NET *53 0.000188143
*CONN
*I *1780:RESET_B I *D sky130_fd_sc_hd__dfrtp_1
*I *1723:Y O *D sky130_fd_sc_hd__inv_2
*CAP
1 *1780:RESET_B 0
2 *1723:Y 9.40715e-05
3 *53:8 9.40715e-05
*RES
1 *1723:Y *53:8 39.5536 
2 *53:8 *1780:RESET_B 15 
*END

*D_NET *54 0.00102759
*CONN
*I *1781:RESET_B I *D sky130_fd_sc_hd__dfrtp_1
*I *1724:Y O *D sky130_fd_sc_hd__inv_2
*CAP
1 *1781:RESET_B 0.000396478
2 *1724:Y 0.000396478
3 *1781:RESET_B *1844:A 0.000139942
4 *1781:RESET_B *382:178 5.67058e-05
5 *1781:RESET_B *389:174 6.17437e-06
6 *1781:RESET_B *390:149 0
7 *1781:RESET_B *417:6 3.18142e-05
*RES
1 *1724:Y *1781:RESET_B 31.2339 
*END

*D_NET *55 0.000559844
*CONN
*I *1782:RESET_B I *D sky130_fd_sc_hd__dfrtp_1
*I *1725:Y O *D sky130_fd_sc_hd__inv_2
*CAP
1 *1782:RESET_B 0
2 *1725:Y 0.000191626
3 *55:10 0.000191626
4 *55:10 *1725:A 6.0765e-05
5 *55:10 *382:92 6.01995e-05
6 *55:10 *393:6 5.56279e-05
*RES
1 *1725:Y *55:10 41.2314 
2 *55:10 *1782:RESET_B 15 
*END

*D_NET *56 0.000386315
*CONN
*I *1783:RESET_B I *D sky130_fd_sc_hd__dfrtp_1
*I *1726:Y O *D sky130_fd_sc_hd__inv_2
*CAP
1 *1783:RESET_B 0.000151509
2 *1726:Y 0.000151509
3 *1783:RESET_B *1840:A 2.50118e-05
4 *1783:RESET_B *382:68 5.82853e-05
*RES
1 *1726:Y *1783:RESET_B 25.4546 
*END

*D_NET *57 0.000720736
*CONN
*I *1784:RESET_B I *D sky130_fd_sc_hd__dfrtp_1
*I *1727:Y O *D sky130_fd_sc_hd__inv_2
*CAP
1 *1784:RESET_B 0
2 *1727:Y 0.000148431
3 *57:10 0.000148431
4 *57:10 *1727:A 3.52383e-05
5 *57:10 *382:30 0.000194318
6 *57:10 *384:12 0.000194318
*RES
1 *1727:Y *57:10 41.7079 
2 *57:10 *1784:RESET_B 15 
*END

*D_NET *58 0.000410471
*CONN
*I *1785:RESET_B I *D sky130_fd_sc_hd__dfrtp_1
*I *1728:Y O *D sky130_fd_sc_hd__inv_2
*CAP
1 *1785:RESET_B 0
2 *1728:Y 0.00013616
3 *58:8 0.00013616
4 *58:8 *325:24 0
5 *58:8 *388:80 0.000138151
*RES
1 *1728:Y *58:8 40.61 
2 *58:8 *1785:RESET_B 15 
*END

*D_NET *59 0.00037532
*CONN
*I *1786:RESET_B I *D sky130_fd_sc_hd__dfrtp_1
*I *1729:Y O *D sky130_fd_sc_hd__inv_2
*CAP
1 *1786:RESET_B 0
2 *1729:Y 9.65724e-05
3 *59:8 9.65724e-05
4 *59:8 *382:191 0.000182175
*RES
1 *1729:Y *59:8 40.61 
2 *59:8 *1786:RESET_B 15 
*END

*D_NET *60 0.000427859
*CONN
*I *1787:RESET_B I *D sky130_fd_sc_hd__dfrtp_1
*I *1731:Y O *D sky130_fd_sc_hd__inv_2
*CAP
1 *1787:RESET_B 5.27499e-05
2 *1731:Y 8.87299e-05
3 *60:8 0.00014148
4 *1787:RESET_B *1787:CLK 5.03716e-05
5 *60:8 *1672:S 0
6 *60:8 *1838:A 6.00922e-06
7 *60:8 *383:122 8.85189e-05
*RES
1 *1731:Y *60:8 39.5536 
2 *60:8 *1787:RESET_B 16.0254 
*END

*D_NET *61 0.000434019
*CONN
*I *1788:RESET_B I *D sky130_fd_sc_hd__dfrtp_2
*I *1732:Y O *D sky130_fd_sc_hd__inv_2
*CAP
1 *1788:RESET_B 0
2 *1732:Y 6.54093e-05
3 *61:8 6.54093e-05
4 *61:8 *1812:CLK 3.31127e-05
5 *61:8 *162:22 0.000199701
6 *61:8 *390:38 7.03869e-05
*RES
1 *1732:Y *61:8 40.61 
2 *61:8 *1788:RESET_B 15 
*END

*D_NET *62 0.000472811
*CONN
*I *1789:RESET_B I *D sky130_fd_sc_hd__dfrtp_1
*I *1733:Y O *D sky130_fd_sc_hd__inv_2
*CAP
1 *1789:RESET_B 7.66003e-05
2 *1733:Y 7.66003e-05
3 *1789:RESET_B *1733:A 5.50106e-05
4 *1789:RESET_B *331:6 0.000218778
5 *1789:RESET_B *409:8 3.46673e-05
6 *1789:RESET_B *409:29 8.06804e-06
7 *1789:RESET_B *481:31 3.08719e-06
*RES
1 *1733:Y *1789:RESET_B 25.4546 
*END

*D_NET *63 0.000225443
*CONN
*I *1790:RESET_B I *D sky130_fd_sc_hd__dfrtp_1
*I *1734:Y O *D sky130_fd_sc_hd__inv_2
*CAP
1 *1790:RESET_B 0
2 *1734:Y 0.000112721
3 *63:8 0.000112721
4 *63:8 *151:74 0
5 *63:8 *238:10 0
*RES
1 *1734:Y *63:8 39.9057 
2 *63:8 *1790:RESET_B 15 
*END

*D_NET *64 0.000425274
*CONN
*I *1791:RESET_B I *D sky130_fd_sc_hd__dfrtp_1
*I *1735:Y O *D sky130_fd_sc_hd__inv_2
*CAP
1 *1791:RESET_B 0
2 *1735:Y 0.000115868
3 *64:8 0.000115868
4 *64:8 *383:12 0.000193539
*RES
1 *1735:Y *64:8 40.61 
2 *64:8 *1791:RESET_B 15 
*END

*D_NET *65 0.000403897
*CONN
*I *1792:RESET_B I *D sky130_fd_sc_hd__dfrtp_1
*I *1736:Y O *D sky130_fd_sc_hd__inv_2
*CAP
1 *1792:RESET_B 0.000155852
2 *1736:Y 0.000155852
3 *1792:RESET_B *1736:A 5.67058e-05
4 *1792:RESET_B *383:99 3.54864e-05
*RES
1 *1736:Y *1792:RESET_B 25.4546 
*END

*D_NET *66 0.000734918
*CONN
*I *1793:RESET_B I *D sky130_fd_sc_hd__dfrtp_1
*I *1737:Y O *D sky130_fd_sc_hd__inv_2
*CAP
1 *1793:RESET_B 1.89473e-05
2 *1737:Y 0.000122937
3 *66:10 0.000141884
4 *1793:RESET_B *266:79 4.70852e-05
5 *1793:RESET_B *487:14 2.62876e-05
6 *66:10 *1654:A2 0.000161121
7 *66:10 *314:65 0.000163352
8 *66:10 *387:52 5.3304e-05
*RES
1 *1737:Y *66:10 40.8793 
2 *66:10 *1793:RESET_B 15.5489 
*END

*D_NET *67 0.000528341
*CONN
*I *1794:RESET_B I *D sky130_fd_sc_hd__dfrtp_1
*I *1738:Y O *D sky130_fd_sc_hd__inv_2
*CAP
1 *1794:RESET_B 0
2 *1738:Y 0.000193524
3 *67:10 0.000193524
4 *67:10 *303:59 8.62876e-05
5 *67:10 *303:63 5.50049e-05
6 *67:10 *353:10 0
7 *67:10 *488:48 0
*RES
1 *1738:Y *67:10 41.2314 
2 *67:10 *1794:RESET_B 15 
*END

*D_NET *68 0.00054685
*CONN
*I *1795:RESET_B I *D sky130_fd_sc_hd__dfrtp_1
*I *1739:Y O *D sky130_fd_sc_hd__inv_2
*CAP
1 *1795:RESET_B 0.000168207
2 *1739:Y 0.000168207
3 *1795:RESET_B *1655:A2 9.07922e-05
4 *1795:RESET_B *383:48 5.58003e-05
5 *1795:RESET_B *383:61 6.38427e-05
*RES
1 *1739:Y *1795:RESET_B 26.4282 
*END

*D_NET *69 0.000654229
*CONN
*I *1796:RESET_B I *D sky130_fd_sc_hd__dfrtp_1
*I *1740:Y O *D sky130_fd_sc_hd__inv_2
*CAP
1 *1796:RESET_B 7.10502e-05
2 *1740:Y 9.83614e-05
3 *69:8 0.000169412
4 *1796:RESET_B *388:41 4.36616e-05
5 *69:8 *1782:CLK 4.41821e-06
6 *69:8 *383:137 0.000186772
7 *69:8 *388:18 8.0554e-05
*RES
1 *1740:Y *69:8 40.61 
2 *69:8 *1796:RESET_B 16.0254 
*END

*D_NET *70 0.000503581
*CONN
*I *1797:RESET_B I *D sky130_fd_sc_hd__dfrtp_2
*I *1742:Y O *D sky130_fd_sc_hd__inv_2
*CAP
1 *1797:RESET_B 0
2 *1742:Y 0.000164375
3 *70:10 0.000164375
4 *70:10 *163:18 0.000117502
5 *70:10 *473:8 5.73288e-05
*RES
1 *1742:Y *70:10 41.2314 
2 *70:10 *1797:RESET_B 15 
*END

*D_NET *71 0.000328195
*CONN
*I *1798:RESET_B I *D sky130_fd_sc_hd__dfrtp_4
*I *1743:Y O *D sky130_fd_sc_hd__inv_2
*CAP
1 *1798:RESET_B 0
2 *1743:Y 8.68772e-05
3 *71:8 8.68772e-05
4 *71:8 *360:113 9.41891e-05
5 *71:8 *384:37 6.02514e-05
*RES
1 *1743:Y *71:8 40.61 
2 *71:8 *1798:RESET_B 15 
*END

*D_NET *72 0.000633512
*CONN
*I *1799:RESET_B I *D sky130_fd_sc_hd__dfrtp_2
*I *1744:Y O *D sky130_fd_sc_hd__inv_2
*CAP
1 *1799:RESET_B 0
2 *1744:Y 0.00025685
3 *72:10 0.00025685
4 *72:10 *339:26 5.58003e-05
5 *72:10 *478:23 6.40115e-05
*RES
1 *1744:Y *72:10 42.9921 
2 *72:10 *1799:RESET_B 15 
*END

*D_NET *73 0.00046881
*CONN
*I *1800:RESET_B I *D sky130_fd_sc_hd__dfrtp_4
*I *1745:Y O *D sky130_fd_sc_hd__inv_2
*CAP
1 *1800:RESET_B 0
2 *1745:Y 9.2659e-05
3 *73:8 9.2659e-05
4 *73:8 *477:12 0.000198447
5 *73:8 *486:53 8.50457e-05
*RES
1 *1745:Y *73:8 40.61 
2 *73:8 *1800:RESET_B 15 
*END

*D_NET *74 0.000321949
*CONN
*I *1801:RESET_B I *D sky130_fd_sc_hd__dfrtp_4
*I *1746:Y O *D sky130_fd_sc_hd__inv_2
*CAP
1 *1801:RESET_B 0
2 *1746:Y 0.000113552
3 *74:10 0.000113552
4 *74:10 *339:164 5.67058e-05
5 *74:10 *390:53 3.81391e-05
6 *74:10 *479:8 0
*RES
1 *1746:Y *74:10 40.175 
2 *74:10 *1801:RESET_B 15 
*END

*D_NET *75 0.000252914
*CONN
*I *1802:RESET_B I *D sky130_fd_sc_hd__dfrtp_4
*I *1747:Y O *D sky130_fd_sc_hd__inv_2
*CAP
1 *1802:RESET_B 0
2 *1747:Y 9.71487e-05
3 *75:8 9.71487e-05
4 *75:8 *381:37 5.86165e-05
5 *75:8 *387:125 0
*RES
1 *1747:Y *75:8 40.2579 
2 *75:8 *1802:RESET_B 15 
*END

*D_NET *76 0.000428657
*CONN
*I *1803:RESET_B I *D sky130_fd_sc_hd__dfrtp_4
*I *1748:Y O *D sky130_fd_sc_hd__inv_2
*CAP
1 *1803:RESET_B 0
2 *1748:Y 6.66296e-05
3 *76:8 6.66296e-05
4 *76:8 *381:27 9.88575e-05
5 *76:8 *384:12 0.00019654
*RES
1 *1748:Y *76:8 40.61 
2 *76:8 *1803:RESET_B 15 
*END

*D_NET *77 0.000400351
*CONN
*I *1804:RESET_B I *D sky130_fd_sc_hd__dfrtp_4
*I *1749:Y O *D sky130_fd_sc_hd__inv_2
*CAP
1 *1804:RESET_B 0
2 *1749:Y 0.000151647
3 *77:10 0.000151647
4 *77:10 *1749:A 9.70579e-05
*RES
1 *1749:Y *77:10 41.2314 
2 *77:10 *1804:RESET_B 15 
*END

*D_NET *78 0.000375538
*CONN
*I *1805:RESET_B I *D sky130_fd_sc_hd__dfrtp_4
*I *1750:Y O *D sky130_fd_sc_hd__inv_2
*CAP
1 *1805:RESET_B 0
2 *1750:Y 0.000187769
3 *78:10 0.000187769
4 *78:10 *339:154 0
5 *78:10 *415:27 0
*RES
1 *1750:Y *78:10 41.2314 
2 *78:10 *1805:RESET_B 15 
*END

*D_NET *79 0.000209669
*CONN
*I *1806:RESET_B I *D sky130_fd_sc_hd__dfrtp_1
*I *1751:Y O *D sky130_fd_sc_hd__inv_2
*CAP
1 *1806:RESET_B 0
2 *1751:Y 7.89056e-05
3 *79:8 7.89056e-05
4 *79:8 *383:44 5.18573e-05
*RES
1 *1751:Y *79:8 39.5536 
2 *79:8 *1806:RESET_B 15 
*END

*D_NET *80 0.00081555
*CONN
*I *1807:RESET_B I *D sky130_fd_sc_hd__dfrtp_1
*I *1753:Y O *D sky130_fd_sc_hd__inv_2
*CAP
1 *1807:RESET_B 0
2 *1753:Y 0.000272656
3 *80:12 0.000272656
4 *80:12 *1807:D 4.58924e-05
5 *80:12 *383:44 0
6 *80:12 *384:54 0.000224345
7 *80:12 *467:12 0
*RES
1 *1753:Y *80:12 43.9864 
2 *80:12 *1807:RESET_B 15 
*END

*D_NET *81 0.000898404
*CONN
*I *1808:RESET_B I *D sky130_fd_sc_hd__dfrtp_1
*I *1754:Y O *D sky130_fd_sc_hd__inv_2
*CAP
1 *1808:RESET_B 0.000233329
2 *1754:Y 0.000100573
3 *81:8 0.000333902
4 *1808:RESET_B *468:21 0.00015153
5 *81:8 *383:44 7.90703e-05
6 *81:8 *468:12 0
*RES
1 *1754:Y *81:8 40.2579 
2 *81:8 *1808:RESET_B 19.8368 
*END

*D_NET *82 0.000212467
*CONN
*I *1809:RESET_B I *D sky130_fd_sc_hd__dfrtp_2
*I *1755:Y O *D sky130_fd_sc_hd__inv_2
*CAP
1 *1809:RESET_B 0
2 *1755:Y 8.78685e-05
3 *82:8 8.78685e-05
4 *82:8 *469:14 3.673e-05
*RES
1 *1755:Y *82:8 39.5536 
2 *82:8 *1809:RESET_B 15 
*END

*D_NET *83 0.000406419
*CONN
*I *1810:RESET_B I *D sky130_fd_sc_hd__dfrtp_2
*I *1756:Y O *D sky130_fd_sc_hd__inv_2
*CAP
1 *1810:RESET_B 0
2 *1756:Y 0.000153265
3 *83:10 0.000153265
4 *83:10 *136:10 0
5 *83:10 *359:18 9.98891e-05
6 *83:10 *388:122 0
*RES
1 *1756:Y *83:10 41.2314 
2 *83:10 *1810:RESET_B 15 
*END

*D_NET *84 0.000845299
*CONN
*I *1811:RESET_B I *D sky130_fd_sc_hd__dfrtp_2
*I *1757:Y O *D sky130_fd_sc_hd__inv_2
*CAP
1 *1811:RESET_B 2.23241e-05
2 *1757:Y 0.000324944
3 *84:10 0.000347268
4 *1811:RESET_B *388:74 4.90004e-05
5 *84:10 *1600:A1 5.5792e-05
6 *84:10 *137:10 0
7 *84:10 *388:94 0
8 *84:10 *471:8 0
9 *84:10 *471:18 4.59712e-05
*RES
1 *1757:Y *84:10 43.6964 
2 *84:10 *1811:RESET_B 15.5489 
*END

*D_NET *85 0.000555333
*CONN
*I *1812:RESET_B I *D sky130_fd_sc_hd__dfrtp_2
*I *1758:Y O *D sky130_fd_sc_hd__inv_2
*CAP
1 *1812:RESET_B 2.2922e-05
2 *1758:Y 0.000148592
3 *85:10 0.000171514
4 *1812:RESET_B *1595:A1 2.8818e-05
5 *85:10 *163:124 0
6 *85:10 *256:55 0.000169245
7 *85:10 *458:20 1.42424e-05
*RES
1 *1758:Y *85:10 40.8793 
2 *85:10 *1812:RESET_B 15.5489 
*END

*D_NET *86 0.000798386
*CONN
*I *1813:RESET_B I *D sky130_fd_sc_hd__dfrtp_4
*I *1759:Y O *D sky130_fd_sc_hd__inv_2
*CAP
1 *1813:RESET_B 0
2 *1759:Y 0.000146482
3 *86:10 0.000146482
4 *86:10 *303:145 0.000155407
5 *86:10 *360:162 0.000195238
6 *86:10 *383:25 5.79934e-05
7 *86:10 *389:36 9.67842e-05
*RES
1 *1759:Y *86:10 43.1164 
2 *86:10 *1813:RESET_B 15 
*END

*D_NET *87 0.000306694
*CONN
*I *1814:RESET_B I *D sky130_fd_sc_hd__dfrtp_4
*I *1760:Y O *D sky130_fd_sc_hd__inv_2
*CAP
1 *1814:RESET_B 0
2 *1760:Y 4.67636e-05
3 *87:8 4.67636e-05
4 *87:8 *140:10 8.62783e-05
5 *87:8 *383:12 0.000113153
6 *87:8 *391:14 1.37349e-05
*RES
1 *1760:Y *87:8 39.5536 
2 *87:8 *1814:RESET_B 15 
*END

*D_NET *88 0.000402498
*CONN
*I *1815:RESET_B I *D sky130_fd_sc_hd__dfrtp_4
*I *1761:Y O *D sky130_fd_sc_hd__inv_2
*CAP
1 *1815:RESET_B 0
2 *1761:Y 0.000102974
3 *88:8 0.000102974
4 *88:8 *391:12 0.000196549
*RES
1 *1761:Y *88:8 40.61 
2 *88:8 *1815:RESET_B 15 
*END

*D_NET *89 0.000254456
*CONN
*I *1816:RESET_B I *D sky130_fd_sc_hd__dfrtp_2
*I *1762:Y O *D sky130_fd_sc_hd__inv_2
*CAP
1 *1816:RESET_B 0
2 *1762:Y 7.10302e-05
3 *89:8 7.10302e-05
4 *89:8 *392:22 0.000112396
*RES
1 *1762:Y *89:8 39.5536 
2 *89:8 *1816:RESET_B 15 
*END

*D_NET *90 0.000879225
*CONN
*I *1817:RESET_B I *D sky130_fd_sc_hd__dfrtp_2
*I *1763:Y O *D sky130_fd_sc_hd__inv_2
*CAP
1 *1817:RESET_B 0.000118224
2 *1763:Y 0.000118224
3 *1817:RESET_B *1552:B 9.06073e-05
4 *1817:RESET_B *161:98 5.03464e-05
5 *1817:RESET_B *380:67 0.000446022
6 *1817:RESET_B *380:69 5.58003e-05
*RES
1 *1763:Y *1817:RESET_B 27.8368 
*END

*D_NET *91 0.0004149
*CONN
*I *1818:RESET_B I *D sky130_fd_sc_hd__dfrtp_1
*I *1764:Y O *D sky130_fd_sc_hd__inv_2
*CAP
1 *1818:RESET_B 2.2922e-05
2 *1764:Y 8.43762e-05
3 *91:8 0.000107298
4 *1818:RESET_B *464:14 2.8818e-05
5 *91:8 *380:75 0.000171485
6 *91:8 *460:10 0
*RES
1 *1764:Y *91:8 40.2579 
2 *91:8 *1818:RESET_B 15.5489 
*END

*D_NET *92 0.000907
*CONN
*I *1819:RESET_B I *D sky130_fd_sc_hd__dfrtp_1
*I *1765:Y O *D sky130_fd_sc_hd__inv_2
*CAP
1 *1819:RESET_B 0.000379153
2 *1765:Y 0.000379153
3 *1819:RESET_B *1847:A 5.79559e-05
4 *1819:RESET_B *390:139 2.90547e-05
5 *1819:RESET_B *465:12 6.16828e-05
*RES
1 *1765:Y *1819:RESET_B 30.2396 
*END

*D_NET *93 0.000460937
*CONN
*I *1820:RESET_B I *D sky130_fd_sc_hd__dfrtp_2
*I *1766:Y O *D sky130_fd_sc_hd__inv_2
*CAP
1 *1820:RESET_B 5.01808e-05
2 *1766:Y 0.000146999
3 *93:8 0.000197179
4 *1820:RESET_B *153:138 5.07583e-05
5 *93:8 *153:138 1.58201e-05
*RES
1 *1766:Y *93:8 40.61 
2 *93:8 *1820:RESET_B 16.0254 
*END

*D_NET *94 0.00130167
*CONN
*I *1767:D I *D sky130_fd_sc_hd__dfrtp_1
*I *1705:X O *D sky130_fd_sc_hd__a21bo_1
*CAP
1 *1767:D 0
2 *1705:X 0.000477687
3 *94:10 0.000477687
4 *94:10 *255:60 0
5 *94:10 *321:21 3.56537e-05
6 *94:10 *377:18 0.000310647
*RES
1 *1705:X *94:10 44.9393 
2 *94:10 *1767:D 38 
*END

*D_NET *95 0.000689333
*CONN
*I *1768:D I *D sky130_fd_sc_hd__dfrtp_1
*I *1704:Y O *D sky130_fd_sc_hd__o21ai_1
*CAP
1 *1768:D 0.000156203
2 *1704:Y 4.6575e-05
3 *95:8 0.000202778
4 *95:8 *377:18 0.000141888
5 *95:8 *381:110 0.000141888
*RES
1 *1704:Y *95:8 39.9057 
2 *95:8 *1768:D 40.5271 
*END

*D_NET *96 0.000799845
*CONN
*I *1769:D I *D sky130_fd_sc_hd__dfrtp_1
*I *1702:Y O *D sky130_fd_sc_hd__nand2_1
*CAP
1 *1769:D 8.94273e-05
2 *1702:Y 0.000177625
3 *96:10 0.000267053
4 *1769:D *1662:A 2.64616e-05
5 *1769:D *1662:B 9.98069e-06
6 *96:10 *422:14 0.000143549
7 *96:10 *497:8 8.57485e-05
*RES
1 *1702:Y *96:10 40.7757 
2 *96:10 *1769:D 39.595 
*END

*D_NET *97 0.000856795
*CONN
*I *1770:D I *D sky130_fd_sc_hd__dfrtp_1
*I *1699:Y O *D sky130_fd_sc_hd__o21ai_1
*CAP
1 *1770:D 0
2 *1699:Y 0.000222406
3 *97:10 0.000222406
4 *97:10 *1698:A1 8.06804e-06
5 *97:10 *1699:B1 0.000189184
6 *97:10 *358:8 0.000141879
7 *97:10 *359:18 7.28526e-05
*RES
1 *1699:Y *97:10 42.4329 
2 *97:10 *1770:D 38 
*END

*D_NET *98 0.000379308
*CONN
*I *1772:D I *D sky130_fd_sc_hd__dfrtp_4
*I *1696:X O *D sky130_fd_sc_hd__a22o_1
*CAP
1 *1772:D 1.25713e-05
2 *1696:X 6.32613e-05
3 *98:8 7.58326e-05
4 *1772:D *388:152 5.58003e-05
5 *1772:D *470:12 3.22879e-05
6 *98:8 *339:20 2.71586e-05
7 *98:8 *359:18 0.000112396
*RES
1 *1696:X *98:8 39.5536 
2 *98:8 *1772:D 38.6214 
*END

*D_NET *99 0.000751568
*CONN
*I *1773:D I *D sky130_fd_sc_hd__dfrtp_1
*I *1695:X O *D sky130_fd_sc_hd__o21a_1
*CAP
1 *1773:D 0
2 *1695:X 0.000283962
3 *99:6 0.000283962
4 *99:6 *1695:A2 2.78276e-05
5 *99:6 *1695:B1 0.000100805
6 *99:6 *1773:CLK 5.50106e-05
*RES
1 *1695:X *99:6 27.9093 
2 *99:6 *1773:D 23 
*END

*D_NET *100 0.000457292
*CONN
*I *1774:D I *D sky130_fd_sc_hd__dfrtp_1
*I *1694:X O *D sky130_fd_sc_hd__clkbuf_1
*CAP
1 *1774:D 0
2 *1694:X 0.000204457
3 *100:10 0.000204457
4 *100:10 *389:46 4.83778e-05
5 *100:10 *404:14 0
*RES
1 *1694:X *100:10 41.48 
2 *100:10 *1774:D 38 
*END

*D_NET *101 0.000478571
*CONN
*I *1775:D I *D sky130_fd_sc_hd__dfrtp_1
*I *1692:X O *D sky130_fd_sc_hd__clkbuf_1
*CAP
1 *1775:D 0
2 *1692:X 0.000239286
3 *101:10 0.000239286
4 *101:10 *381:37 0
5 *101:10 *489:18 0
*RES
1 *1692:X *101:10 41.48 
2 *101:10 *1775:D 38 
*END

*D_NET *102 0.000658214
*CONN
*I *1776:D I *D sky130_fd_sc_hd__dfrtp_1
*I *1690:X O *D sky130_fd_sc_hd__clkbuf_1
*CAP
1 *1776:D 0
2 *1690:X 0.000235117
3 *102:8 0.000235117
4 *102:8 *1776:CLK 7.41768e-05
5 *102:8 *372:12 0.000113804
*RES
1 *1690:X *102:8 27.4536 
2 *102:8 *1776:D 23 
*END

*D_NET *103 0.00067161
*CONN
*I *1777:D I *D sky130_fd_sc_hd__dfrtp_1
*I *1688:X O *D sky130_fd_sc_hd__clkbuf_1
*CAP
1 *1777:D 0
2 *1688:X 0.0002421
3 *103:10 0.0002421
4 *103:10 *487:39 0.000187411
5 *50:10 *103:10 0
*RES
1 *1688:X *103:10 41.6043 
2 *103:10 *1777:D 38 
*END

*D_NET *104 0.000599463
*CONN
*I *1778:D I *D sky130_fd_sc_hd__dfrtp_1
*I *1686:X O *D sky130_fd_sc_hd__clkbuf_1
*CAP
1 *1778:D 0
2 *1686:X 0.000251536
3 *104:10 0.000251536
4 *104:10 *404:14 9.63918e-05
*RES
1 *1686:X *104:10 42.1843 
2 *104:10 *1778:D 38 
*END

*D_NET *105 0.000348457
*CONN
*I *1779:D I *D sky130_fd_sc_hd__dfrtp_1
*I *1684:X O *D sky130_fd_sc_hd__clkbuf_1
*CAP
1 *1779:D 6.12732e-05
2 *1684:X 4.61198e-05
3 *105:8 0.000107393
4 *1779:D *1779:CLK 9.04105e-06
5 *105:8 *369:10 3.88725e-05
6 *105:8 *388:105 8.57577e-05
*RES
1 *1684:X *105:8 39.2014 
2 *105:8 *1779:D 38.6888 
*END

*D_NET *106 0.000502967
*CONN
*I *1780:D I *D sky130_fd_sc_hd__dfrtp_1
*I *1682:X O *D sky130_fd_sc_hd__clkbuf_1
*CAP
1 *1780:D 0.000128856
2 *1682:X 8.61681e-05
3 *106:8 0.000215024
4 *1780:D *360:168 3.7122e-06
5 *106:8 *392:22 6.92075e-05
*RES
1 *1682:X *106:8 39.9057 
2 *106:8 *1780:D 40.0507 
*END

*D_NET *107 0.000414933
*CONN
*I *1781:D I *D sky130_fd_sc_hd__dfrtp_1
*I *1680:X O *D sky130_fd_sc_hd__clkbuf_1
*CAP
1 *1781:D 0.000185503
2 *1680:X 0.000185503
3 *1781:D *389:174 4.39278e-05
*RES
1 *1680:X *1781:D 49.5007 
*END

*D_NET *108 0.000431954
*CONN
*I *1782:D I *D sky130_fd_sc_hd__dfrtp_1
*I *1678:X O *D sky130_fd_sc_hd__clkbuf_1
*CAP
1 *1782:D 9.68323e-05
2 *1678:X 9.68323e-05
3 *1782:D *1678:A 1.76557e-05
4 *1782:D *1782:CLK 5.70419e-05
5 *1782:D *486:18 7.53384e-06
6 *1782:D *487:53 0.000156058
*RES
1 *1678:X *1782:D 49.5007 
*END

*D_NET *109 0.000530385
*CONN
*I *1783:D I *D sky130_fd_sc_hd__dfrtp_1
*I *1676:X O *D sky130_fd_sc_hd__clkbuf_1
*CAP
1 *1783:D 0
2 *1676:X 0.000235927
3 *109:10 0.000235927
4 *109:10 *387:140 4.11274e-05
5 *109:10 *387:155 1.7403e-05
*RES
1 *1676:X *109:10 41.6043 
2 *109:10 *1783:D 38 
*END

*D_NET *110 0.00125161
*CONN
*I *1784:D I *D sky130_fd_sc_hd__dfrtp_1
*I *1674:X O *D sky130_fd_sc_hd__a2bb2o_1
*CAP
1 *1784:D 0
2 *1674:X 0.000587137
3 *110:12 0.000587137
4 *110:12 *1727:A 7.73389e-05
5 *110:12 *384:12 0
6 *110:12 *404:12 0
7 *10:13 *110:12 0
*RES
1 *1674:X *110:12 47.1971 
2 *110:12 *1784:D 38 
*END

*D_NET *111 0.000957382
*CONN
*I *1785:D I *D sky130_fd_sc_hd__dfrtp_1
*I *1673:X O *D sky130_fd_sc_hd__clkbuf_1
*CAP
1 *1785:D 8.44795e-05
2 *1673:X 0.000194125
3 *111:10 0.000278605
4 *1785:D *1787:CLK 5.12254e-05
5 *1785:D *388:80 6.9805e-05
6 *1785:D *407:6 5.50049e-05
7 *1785:D *407:27 0.000140259
8 *111:10 *1672:S 3.53115e-05
9 *111:10 *1673:A 3.22879e-05
10 *111:10 *325:24 0
11 *111:10 *407:14 1.6279e-05
*RES
1 *1673:X *111:10 41.1279 
2 *111:10 *1785:D 40.5271 
*END

*D_NET *112 0.000488976
*CONN
*I *1786:D I *D sky130_fd_sc_hd__dfrtp_1
*I *1671:X O *D sky130_fd_sc_hd__a22o_1
*CAP
1 *1786:D 0
2 *1671:X 0.000144087
3 *112:10 0.000144087
4 *112:10 *424:12 0.000143166
5 *112:10 *425:16 5.76359e-05
*RES
1 *1671:X *112:10 41.0036 
2 *112:10 *1786:D 38 
*END

*D_NET *113 0.000872262
*CONN
*I *1787:D I *D sky130_fd_sc_hd__dfrtp_1
*I *1670:X O *D sky130_fd_sc_hd__clkbuf_1
*CAP
1 *1787:D 0.000270276
2 *1670:X 5.78835e-05
3 *113:8 0.000328159
4 *1787:D *1787:CLK 7.46298e-05
5 *1787:D *338:36 4.84129e-06
6 *1787:D *383:122 5.14266e-05
7 *113:8 *442:10 8.50457e-05
*RES
1 *1670:X *113:8 39.2014 
2 *113:8 *1787:D 41.858 
*END

*D_NET *114 0.000757841
*CONN
*I *1788:D I *D sky130_fd_sc_hd__dfrtp_2
*I *1668:X O *D sky130_fd_sc_hd__a32o_1
*CAP
1 *1788:D 9.43062e-05
2 *1668:X 0.000212013
3 *114:10 0.000306319
4 *1788:D *390:25 7.87147e-05
5 *114:10 *149:153 0
6 *114:10 *153:123 5.31444e-05
7 *114:10 *162:22 1.33439e-05
*RES
1 *1668:X *114:10 41.1279 
2 *114:10 *1788:D 39.5743 
*END

*D_NET *115 0.000728688
*CONN
*I *1789:D I *D sky130_fd_sc_hd__dfrtp_1
*I *1667:Y O *D sky130_fd_sc_hd__o21ai_1
*CAP
1 *1789:D 3.06861e-05
2 *1667:Y 0.000267911
3 *115:12 0.000298597
4 *1789:D *481:31 3.22465e-05
5 *115:12 *360:132 9.92473e-05
*RES
1 *1667:Y *115:12 43.6136 
2 *115:12 *1789:D 38.6214 
*END

*D_NET *116 0.0016808
*CONN
*I *1790:D I *D sky130_fd_sc_hd__dfrtp_1
*I *1661:X O *D sky130_fd_sc_hd__a31o_1
*CAP
1 *1790:D 0.00010286
2 *1661:X 0.000242681
3 *116:8 0.000345541
4 *1790:D *361:42 9.91798e-05
5 *1790:D *383:146 9.5877e-05
6 *116:8 *1553:A 8.4047e-05
7 *116:8 *238:10 0.000496056
8 *116:8 *383:156 4.48974e-05
9 *116:8 *384:122 0.000166463
10 *116:8 *486:68 3.19892e-06
*RES
1 *1661:X *116:8 44.8357 
2 *116:8 *1790:D 40.5479 
*END

*D_NET *117 0.00109181
*CONN
*I *1791:D I *D sky130_fd_sc_hd__dfrtp_1
*I *1659:X O *D sky130_fd_sc_hd__a31o_1
*CAP
1 *1791:D 0
2 *1659:X 0.000456965
3 *117:6 0.000456965
4 *117:6 *1791:CLK 0.000149774
5 *117:6 *485:8 2.81066e-05
*RES
1 *1659:X *117:6 31.2443 
2 *117:6 *1791:D 23 
*END

*D_NET *118 0.00112735
*CONN
*I *1792:D I *D sky130_fd_sc_hd__dfrtp_1
*I *1657:X O *D sky130_fd_sc_hd__a31o_1
*CAP
1 *1792:D 0.000105651
2 *1657:X 0.000275534
3 *118:10 0.000381186
4 *1792:D *383:99 0.000123934
5 *118:10 *1649:B1 1.41077e-05
6 *118:10 *1657:A3 5.50049e-05
7 *118:10 *259:180 3.45871e-05
8 *118:10 *266:51 2.07242e-05
9 *118:10 *303:59 5.50106e-05
10 *118:10 *486:33 6.16085e-05
*RES
1 *1657:X *118:10 42.4329 
2 *118:10 *1792:D 40.5271 
*END

*D_NET *119 0.000507677
*CONN
*I *1793:D I *D sky130_fd_sc_hd__dfrtp_1
*I *1655:X O *D sky130_fd_sc_hd__a31o_1
*CAP
1 *1793:D 1.55527e-05
2 *1655:X 0.000147753
3 *119:10 0.000163306
4 *1793:D *1651:A3 3.22879e-05
5 *1793:D *303:73 2.93747e-05
6 *119:10 *1651:A3 1.09886e-05
7 *119:10 *1655:A3 5.34044e-05
8 *119:10 *352:10 0
9 *119:10 *387:52 5.50106e-05
*RES
1 *1655:X *119:10 40.5271 
2 *119:10 *1793:D 38.6214 
*END

*D_NET *120 0.0004002
*CONN
*I *1794:D I *D sky130_fd_sc_hd__dfrtp_1
*I *1653:X O *D sky130_fd_sc_hd__a31o_1
*CAP
1 *1794:D 0
2 *1653:X 0.000150337
3 *120:10 0.000150337
4 *120:10 *1777:CLK 3.83778e-05
5 *120:10 *303:73 3.22879e-05
6 *120:10 *383:78 0
7 *120:10 *387:29 1.83153e-05
8 *120:10 *488:14 1.05441e-05
*RES
1 *1653:X *120:10 40.5271 
2 *120:10 *1794:D 38 
*END

*D_NET *121 0.000836105
*CONN
*I *1795:D I *D sky130_fd_sc_hd__dfrtp_1
*I *1651:X O *D sky130_fd_sc_hd__a31o_1
*CAP
1 *1795:D 0
2 *1651:X 0.000253727
3 *121:10 0.000253727
4 *121:10 *1793:CLK 0.000183236
5 *121:10 *360:24 3.33949e-05
6 *121:10 *360:113 6.10809e-05
7 *121:10 *387:76 5.09373e-05
*RES
1 *1651:X *121:10 42.4329 
2 *121:10 *1795:D 38 
*END

*D_NET *122 0.000424357
*CONN
*I *1796:D I *D sky130_fd_sc_hd__dfrtp_1
*I *1649:X O *D sky130_fd_sc_hd__a31o_1
*CAP
1 *1796:D 0
2 *1649:X 0.000129145
3 *122:10 0.000129145
4 *122:10 *338:26 5.58003e-05
5 *122:10 *486:33 0.000110267
*RES
1 *1649:X *122:10 40.175 
2 *122:10 *1796:D 38 
*END

*D_NET *123 0.000680966
*CONN
*I *1797:D I *D sky130_fd_sc_hd__dfrtp_2
*I *1647:X O *D sky130_fd_sc_hd__a221o_1
*CAP
1 *1797:D 0
2 *1647:X 0.000168102
3 *123:10 0.000168102
4 *123:10 *153:39 2.04774e-05
5 *123:10 *163:22 3.3746e-05
6 *123:10 *389:16 0.000138718
7 *123:10 *473:8 0.000141677
8 *123:10 *491:55 1.01436e-05
*RES
1 *1647:X *123:10 41.48 
2 *123:10 *1797:D 38 
*END

*D_NET *124 0.00052422
*CONN
*I *1798:D I *D sky130_fd_sc_hd__dfrtp_4
*I *1643:X O *D sky130_fd_sc_hd__clkbuf_1
*CAP
1 *1798:D 0.000115807
2 *1643:X 4.11681e-05
3 *124:8 0.000156975
4 *1798:D *387:115 3.32317e-05
5 *124:8 *382:72 8.85189e-05
6 *124:8 *384:37 8.85189e-05
*RES
1 *1643:X *124:8 39.2014 
2 *124:8 *1798:D 40.0714 
*END

*D_NET *125 0.000814983
*CONN
*I *1799:D I *D sky130_fd_sc_hd__dfrtp_2
*I *1641:X O *D sky130_fd_sc_hd__clkbuf_1
*CAP
1 *1799:D 8.51799e-05
2 *1641:X 0.000157775
3 *125:8 0.000242955
4 *1799:D *259:135 1.09834e-05
5 *1799:D *477:12 5.45644e-05
6 *125:8 *477:12 0.000154813
7 *125:8 *478:23 0.000108713
*RES
1 *1641:X *125:8 42.3707 
2 *125:8 *1799:D 39.5743 
*END

*D_NET *126 0.0012775
*CONN
*I *1800:D I *D sky130_fd_sc_hd__dfrtp_4
*I *1639:X O *D sky130_fd_sc_hd__clkbuf_1
*CAP
1 *1800:D 6.13415e-05
2 *1639:X 0.00021894
3 *126:12 0.000280282
4 *1800:D *1638:A1 0.000230195
5 *1800:D *387:29 9.77405e-05
6 *1800:D *486:53 3.18516e-05
7 *126:12 *1639:A 9.77405e-05
8 *126:12 *1799:CLK 7.52235e-05
9 *126:12 *259:135 0.000100836
10 *126:12 *413:24 8.33469e-05
*RES
1 *1639:X *126:12 43.1579 
2 *126:12 *1800:D 40.5271 
*END

*D_NET *127 0.000566954
*CONN
*I *1801:D I *D sky130_fd_sc_hd__dfrtp_4
*I *1637:X O *D sky130_fd_sc_hd__clkbuf_1
*CAP
1 *1801:D 0.00019722
2 *1637:X 0.00019722
3 *1801:D *256:55 5.92108e-05
4 *1801:D *390:42 4.34973e-05
5 *1801:D *390:53 6.9805e-05
*RES
1 *1637:X *1801:D 49.5007 
*END

*D_NET *128 0.000548049
*CONN
*I *1802:D I *D sky130_fd_sc_hd__dfrtp_4
*I *1635:X O *D sky130_fd_sc_hd__clkbuf_1
*CAP
1 *1802:D 3.16782e-05
2 *1635:X 0.000173271
3 *128:10 0.000204949
4 *1802:D *387:125 2.93845e-05
5 *128:10 *387:125 0
6 *128:10 *387:133 3.31127e-05
7 *128:10 *387:140 7.03869e-05
8 *128:10 *435:6 5.26733e-06
*RES
1 *1635:X *128:10 41.2314 
2 *128:10 *1802:D 38.6214 
*END

*D_NET *129 0.000265989
*CONN
*I *1803:D I *D sky130_fd_sc_hd__dfrtp_4
*I *1633:X O *D sky130_fd_sc_hd__clkbuf_1
*CAP
1 *1803:D 0
2 *1633:X 8.7082e-05
3 *129:8 8.7082e-05
4 *129:8 *1803:CLK 4.21594e-06
5 *129:8 *342:10 8.76088e-05
6 *129:8 *446:8 0
*RES
1 *1633:X *129:8 40.2579 
2 *129:8 *1803:D 38 
*END

*D_NET *130 0.00057969
*CONN
*I *1804:D I *D sky130_fd_sc_hd__dfrtp_4
*I *1631:X O *D sky130_fd_sc_hd__clkbuf_1
*CAP
1 *1804:D 0.000164404
2 *1631:X 0.000100826
3 *130:8 0.00026523
4 *130:8 *1749:A 4.92303e-05
*RES
1 *1631:X *130:8 40.2579 
2 *130:8 *1804:D 41.0036 
*END

*D_NET *131 0.000830607
*CONN
*I *1805:D I *D sky130_fd_sc_hd__dfrtp_4
*I *1629:X O *D sky130_fd_sc_hd__clkbuf_1
*CAP
1 *1805:D 0.000141708
2 *1629:X 5.99934e-05
3 *131:8 0.000201702
4 *1805:D *339:164 9.41584e-05
5 *131:8 *1628:S 7.6144e-05
6 *131:8 *339:154 9.03784e-05
7 *131:8 *381:90 0.000166522
*RES
1 *1629:X *131:8 40.2579 
2 *131:8 *1805:D 41.0036 
*END

*D_NET *132 0.00191101
*CONN
*I *1806:D I *D sky130_fd_sc_hd__dfrtp_1
*I *1626:X O *D sky130_fd_sc_hd__a22o_1
*CAP
1 *1806:D 0.000488638
2 *1626:X 0.000152268
3 *132:8 0.000640906
4 *1806:D *461:14 7.48505e-05
5 *1806:D *461:64 5.58003e-05
6 *1806:D *486:53 0.000335311
7 *132:8 *314:40 7.74854e-05
8 *132:8 *437:8 8.57485e-05
*RES
1 *1626:X *132:8 40.2579 
2 *132:8 *1806:D 49.1029 
*END

*D_NET *133 0.00272164
*CONN
*I *1807:D I *D sky130_fd_sc_hd__dfrtp_1
*I *1621:X O *D sky130_fd_sc_hd__a22o_1
*CAP
1 *1807:D 0.00056448
2 *1621:X 0.000539531
3 *133:16 0.00110401
4 *1807:D *383:44 0
5 *1807:D *387:93 7.43845e-05
6 *1807:D *467:12 8.85189e-05
7 *133:16 *1621:A1 6.69899e-05
8 *133:16 *1621:A2 9.75779e-05
9 *133:16 *467:12 0.000140259
10 *80:12 *1807:D 4.58924e-05
*RES
1 *1621:X *133:16 48.3571 
2 *133:16 *1807:D 47.1971 
*END

*D_NET *134 0.00132889
*CONN
*I *1808:D I *D sky130_fd_sc_hd__dfrtp_1
*I *1617:X O *D sky130_fd_sc_hd__a21bo_1
*CAP
1 *1808:D 0
2 *1617:X 0.00058575
3 *134:10 0.00058575
4 *134:10 *1617:B1_N 2.92911e-06
5 *134:10 *360:132 6.90927e-05
6 *134:10 *429:6 6.70361e-05
7 *134:10 *444:10 1.83327e-05
*RES
1 *1617:X *134:10 45.7679 
2 *134:10 *1808:D 38 
*END

*D_NET *135 0.00210873
*CONN
*I *1809:D I *D sky130_fd_sc_hd__dfrtp_2
*I *1610:X O *D sky130_fd_sc_hd__a22o_1
*CAP
1 *1809:D 0.000141958
2 *1610:X 0.000651613
3 *135:8 0.000793572
4 *1809:D *388:18 2.19291e-05
5 *1809:D *469:14 0
6 *1809:D *490:46 3.6608e-05
7 *135:8 *163:61 0.000202736
8 *135:8 *163:78 0.00018578
9 *135:8 *388:65 4.51972e-05
10 *135:8 *469:14 2.93335e-05
*RES
1 *1610:X *135:8 47.6736 
2 *135:8 *1809:D 40.61 
*END

*D_NET *136 0.000493937
*CONN
*I *1810:D I *D sky130_fd_sc_hd__dfrtp_2
*I *1605:X O *D sky130_fd_sc_hd__a21o_1
*CAP
1 *1810:D 0
2 *1605:X 0.00015864
3 *136:10 0.00015864
4 *136:10 *359:18 0
5 *136:10 *388:122 6.48049e-05
6 *136:10 *388:139 0.000111852
7 *83:10 *136:10 0
*RES
1 *1605:X *136:10 40.8793 
2 *136:10 *1810:D 38 
*END

*D_NET *137 0.00086898
*CONN
*I *1811:D I *D sky130_fd_sc_hd__dfrtp_2
*I *1600:X O *D sky130_fd_sc_hd__a22o_1
*CAP
1 *1811:D 3.2303e-05
2 *1600:X 0.000304154
3 *137:10 0.000336457
4 *1811:D *388:74 2.95423e-05
5 *137:10 *1600:A1 5.58003e-05
6 *137:10 *1669:A0 0.000110723
7 *137:10 *471:18 0
8 *84:10 *137:10 0
*RES
1 *1600:X *137:10 44.0486 
2 *137:10 *1811:D 38.6214 
*END

*D_NET *138 0.000394901
*CONN
*I *1812:D I *D sky130_fd_sc_hd__dfrtp_2
*I *1595:X O *D sky130_fd_sc_hd__a22o_1
*CAP
1 *1812:D 7.37166e-05
2 *1595:X 7.37166e-05
3 *1812:D *1595:A1 4.09032e-05
4 *1812:D *1812:CLK 5.82853e-05
5 *1812:D *385:100 0.000148279
*RES
1 *1595:X *1812:D 48.6929 
*END

*D_NET *139 0.00060651
*CONN
*I *1813:D I *D sky130_fd_sc_hd__dfrtp_4
*I *1587:X O *D sky130_fd_sc_hd__a2bb2o_1
*CAP
1 *1813:D 0
2 *1587:X 0.000190954
3 *139:10 0.000190954
4 *139:10 *1667:A2 0.000141675
5 *139:10 *331:27 8.29264e-05
*RES
1 *1587:X *139:10 41.1279 
2 *139:10 *1813:D 38 
*END

*D_NET *140 0.00144396
*CONN
*I *1814:D I *D sky130_fd_sc_hd__dfrtp_4
*I *1583:Y O *D sky130_fd_sc_hd__o2bb2ai_1
*CAP
1 *1814:D 0.000365445
2 *1583:Y 0.000196752
3 *140:10 0.000562197
4 *1814:D *389:90 6.17437e-06
5 *140:10 *1693:A0 3.7122e-06
6 *140:10 *391:14 8.4047e-05
7 *140:10 *474:14 0.000139352
8 *87:8 *140:10 8.62783e-05
*RES
1 *1583:Y *140:10 41.2521 
2 *140:10 *1814:D 42.5986 
*END

*D_NET *141 0.00199325
*CONN
*I *1815:D I *D sky130_fd_sc_hd__dfrtp_4
*I *1576:X O *D sky130_fd_sc_hd__a22o_1
*CAP
1 *1815:D 0
2 *1576:X 0.000888011
3 *141:10 0.000888011
4 *141:10 *1576:B2 3.53115e-05
5 *141:10 *296:10 0.000181919
*RES
1 *1576:X *141:10 38.08 
2 *141:10 *1815:D 23 
*END

*D_NET *142 0.00253911
*CONN
*I *1816:D I *D sky130_fd_sc_hd__dfrtp_2
*I *1572:Y O *D sky130_fd_sc_hd__nand2_1
*CAP
1 *1816:D 0
2 *1572:Y 0.00114268
3 *142:10 0.00114268
4 *142:10 *1514:A 2.93104e-06
5 *142:10 *1571:B 8.08187e-06
6 *142:10 *1572:A 4.91172e-06
7 *142:10 *1572:B 3.26241e-05
8 *142:10 *162:151 1.21972e-05
9 *142:10 *389:143 2.10502e-05
10 *142:10 *462:8 9.54634e-05
11 *142:10 *462:19 7.64944e-05
*RES
1 *1572:Y *142:10 38.4321 
2 *142:10 *1816:D 23 
*END

*D_NET *143 0.00130107
*CONN
*I *1817:D I *D sky130_fd_sc_hd__dfrtp_2
*I *1561:X O *D sky130_fd_sc_hd__a22o_1
*CAP
1 *1817:D 0.000107214
2 *1561:X 0.000284737
3 *143:8 0.000391951
4 *1817:D *161:98 0.000199058
5 *1817:D *380:67 0.000126917
6 *143:8 *1560:B1 1.3116e-05
7 *143:8 *1841:A 0
8 *143:8 *149:118 4.50551e-05
9 *143:8 *153:86 3.88629e-05
10 *143:8 *464:14 9.41549e-05
*RES
1 *1561:X *143:8 42.7229 
2 *143:8 *1817:D 41.9564 
*END

*D_NET *144 0.000995748
*CONN
*I *1818:D I *D sky130_fd_sc_hd__dfrtp_1
*I *1552:Y O *D sky130_fd_sc_hd__nand2_1
*CAP
1 *1818:D 0.000154346
2 *1552:Y 0.000209566
3 *144:8 0.000363912
4 *1818:D *464:14 0.000112756
5 *144:8 *275:10 8.6533e-05
6 *144:8 *380:75 5.00851e-05
7 *144:8 *382:178 0
8 *144:8 *463:8 1.85495e-05
*RES
1 *1552:Y *144:8 42.0186 
2 *144:8 *1818:D 41.48 
*END

*D_NET *145 0.000623047
*CONN
*I *1819:D I *D sky130_fd_sc_hd__dfrtp_1
*I *1542:Y O *D sky130_fd_sc_hd__o2bb2ai_1
*CAP
1 *1819:D 0
2 *1542:Y 0.000300998
3 *145:10 0.000300998
4 *145:10 *161:86 2.10502e-05
5 *145:10 *465:12 0
*RES
1 *1542:Y *145:10 43.3443 
2 *145:10 *1819:D 38 
*END

*D_NET *146 0.000995334
*CONN
*I *1820:D I *D sky130_fd_sc_hd__dfrtp_2
*I *1532:X O *D sky130_fd_sc_hd__a2bb2o_1
*CAP
1 *1820:D 3.69398e-05
2 *1532:X 0.000262214
3 *146:10 0.000299154
4 *1820:D *153:138 2.93431e-05
5 *146:10 *153:117 5.50106e-05
6 *146:10 *398:22 0.000312672
7 *146:10 *466:57 0
*RES
1 *1532:X *146:10 42.9921 
2 *146:10 *1820:D 38.6214 
*END

*D_NET *147 0.000929514
*CONN
*I *1421:A I *D sky130_fd_sc_hd__clkbuf_4
*I *1491:A2 I *D sky130_fd_sc_hd__o21bai_1
*I *1420:X O *D sky130_fd_sc_hd__and2b_1
*CAP
1 *1421:A 0
2 *1491:A2 0.000232821
3 *1420:X 8.17907e-05
4 *147:14 0.000345745
5 *147:8 0.000194715
6 *1491:A2 *218:8 3.91386e-05
7 *1491:A2 *477:23 3.53051e-05
8 *147:8 *477:23 0
9 *147:8 *492:66 0
*RES
1 *1420:X *147:8 39.2014 
2 *147:8 *147:14 17.0714 
3 *147:14 *1491:A2 26.9771 
4 *147:14 *1421:A 23 
*END

*D_NET *148 0.015217
*CONN
*I *1451:B1 I *D sky130_fd_sc_hd__a21oi_2
*I *1453:A2 I *D sky130_fd_sc_hd__o21bai_1
*I *1422:A I *D sky130_fd_sc_hd__clkbuf_4
*I *1496:C1 I *D sky130_fd_sc_hd__a211o_1
*I *1484:A1 I *D sky130_fd_sc_hd__o21ai_1
*I *1480:A1 I *D sky130_fd_sc_hd__o21ai_1
*I *1618:A1 I *D sky130_fd_sc_hd__o22a_1
*I *1537:A I *D sky130_fd_sc_hd__nor2_4
*I *1623:B2 I *D sky130_fd_sc_hd__o32a_1
*I *1506:C1 I *D sky130_fd_sc_hd__a211o_1
*I *1421:X O *D sky130_fd_sc_hd__clkbuf_4
*CAP
1 *1451:B1 0
2 *1453:A2 0
3 *1422:A 0
4 *1496:C1 0
5 *1484:A1 0
6 *1480:A1 0
7 *1618:A1 0
8 *1537:A 0.000478756
9 *1623:B2 0
10 *1506:C1 0
11 *1421:X 0.000436955
12 *148:118 0.000393462
13 *148:100 0.000289079
14 *148:59 0.00040757
15 *148:51 0.000974747
16 *148:45 0.000508351
17 *148:43 0.000482676
18 *148:41 0.00026316
19 *148:39 0.00075086
20 *148:35 0.000516286
21 *148:26 0.000478821
22 *148:20 0.000653373
23 *148:16 0.000399988
24 *148:12 0.000800934
25 *1537:A *1495:B1 9.41704e-05
26 *1537:A *1619:C1 4.17736e-05
27 *1537:A *263:92 6.53881e-05
28 *148:12 *1420:B 0
29 *148:12 *170:25 7.81176e-05
30 *148:12 *170:31 0.000171338
31 *148:12 *170:50 0
32 *148:12 *170:99 3.35885e-06
33 *148:12 *254:31 6.7177e-06
34 *148:12 *266:28 0.000336139
35 *148:12 *492:66 0.000120867
36 *148:16 *1451:A1 0.000135037
37 *148:16 *170:99 7.15126e-05
38 *148:16 *178:10 2.18506e-05
39 *148:16 *179:26 2.32101e-05
40 *148:20 *178:10 6.81213e-05
41 *148:20 *179:26 1.40958e-05
42 *148:26 *1429:B 1.05441e-05
43 *148:26 *166:71 7.55595e-05
44 *148:26 *166:73 2.96051e-05
45 *148:26 *480:94 0.000266695
46 *148:26 *492:44 0.000476443
47 *148:35 *1506:A1 5.3304e-05
48 *148:35 *1506:A2 0.000138859
49 *148:35 *233:8 5.46873e-05
50 *148:35 *469:37 6.90595e-05
51 *148:35 *492:126 0.000478167
52 *148:39 *149:8 1.10658e-05
53 *148:39 *469:37 0.000272405
54 *148:41 *149:8 2.812e-05
55 *148:41 *211:10 7.79323e-05
56 *148:41 *478:53 0.000162779
57 *148:43 *1480:A2 1.03836e-05
58 *148:43 *1480:B1 2.64616e-05
59 *148:43 *207:10 4.79641e-05
60 *148:43 *211:10 0.000102944
61 *148:43 *478:53 6.17437e-06
62 *148:45 *152:29 1.03955e-05
63 *148:45 *207:10 0.000367864
64 *148:45 *211:10 7.61229e-06
65 *148:45 *339:53 9.17998e-05
66 *148:45 *468:53 9.66668e-05
67 *148:51 *153:27 0.000100796
68 *148:51 *222:8 0.000161032
69 *148:51 *222:21 1.0092e-05
70 *148:59 *1619:C1 0.000136743
71 *148:59 *149:43 0.00026478
72 *148:59 *152:39 0.000488758
73 *148:100 *1481:B1 0.000131541
74 *148:100 *1496:B1 3.46476e-05
75 *148:100 *1498:B 6.11931e-05
76 *148:100 *224:10 0.000335145
77 *148:100 *469:47 0.000335145
78 *148:100 *479:41 4.49877e-05
79 *148:118 *1456:A1 0.000170349
80 *148:118 *1458:A2 8.84281e-05
81 *148:118 *1505:A1 3.22051e-05
82 *148:118 *1505:A2 2.93335e-05
83 *148:118 *1505:B1 2.93431e-05
84 *148:118 *173:174 1.24376e-05
85 *148:118 *178:10 0.000425141
86 *148:118 *179:26 4.2062e-05
87 *148:118 *181:53 1.21466e-05
88 *148:118 *232:10 2.49459e-05
89 *148:118 *480:75 0.000185537
*RES
1 *1421:X *148:12 48.1293 
2 *148:12 *148:16 20.8621 
3 *148:16 *148:20 1.11857 
4 *148:20 *148:26 36.4836 
5 *148:26 *1506:C1 23 
6 *148:26 *148:35 6.83571 
7 *148:35 *148:39 6.35929 
8 *148:39 *148:41 4.43286 
9 *148:41 *148:43 2.05071 
10 *148:43 *148:45 9.67357 
11 *148:45 *148:51 32.2579 
12 *148:51 *148:59 38.41 
13 *148:59 *1623:B2 23 
14 *148:51 *1537:A 29.5871 
15 *148:45 *1618:A1 23 
16 *148:43 *1480:A1 23 
17 *148:41 *1484:A1 23 
18 *148:39 *148:100 38.12 
19 *148:100 *1496:C1 23 
20 *148:35 *1422:A 23 
21 *148:20 *148:118 39.9843 
22 *148:118 *1453:A2 23 
23 *148:16 *1451:B1 23 
*END

*D_NET *149 0.0311872
*CONN
*I *1568:A1 I *D sky130_fd_sc_hd__o21ai_1
*I *1560:A2 I *D sky130_fd_sc_hd__o31a_1
*I *1534:A2 I *D sky130_fd_sc_hd__o31a_1
*I *1437:A1 I *D sky130_fd_sc_hd__o221ai_1
*I *1594:A2 I *D sky130_fd_sc_hd__o31a_1
*I *1548:A1 I *D sky130_fd_sc_hd__o21ai_1
*I *1569:A2 I *D sky130_fd_sc_hd__o31a_1
*I *1575:A2 I *D sky130_fd_sc_hd__o31a_1
*I *1615:A1 I *D sky130_fd_sc_hd__o221ai_1
*I *1644:A1 I *D sky130_fd_sc_hd__o21ai_1
*I *1422:X O *D sky130_fd_sc_hd__clkbuf_4
*CAP
1 *1568:A1 0.000135562
2 *1560:A2 2.9455e-05
3 *1534:A2 8.83154e-05
4 *1437:A1 1.59167e-05
5 *1594:A2 1.65085e-05
6 *1548:A1 0.000272312
7 *1569:A2 0
8 *1575:A2 0
9 *1615:A1 1.87628e-05
10 *1644:A1 0.000198285
11 *1422:X 0.000614261
12 *149:153 0.00104403
13 *149:141 0.00111667
14 *149:126 0.000544779
15 *149:118 0.00140102
16 *149:104 0.00170765
17 *149:85 0.000868117
18 *149:74 0.000336101
19 *149:70 0.000466753
20 *149:68 0.00190956
21 *149:43 0.00251883
22 *149:20 0.00196776
23 *149:8 0.00149475
24 *1437:A1 *161:78 5.56356e-05
25 *1437:A1 *164:14 2.91772e-05
26 *1534:A2 *1534:A1 3.74519e-05
27 *1534:A2 *266:155 1.83107e-05
28 *1548:A1 *1437:C1 6.26126e-05
29 *1548:A1 *1550:A2 9.67842e-05
30 *1548:A1 *153:104 0.000267425
31 *1548:A1 *381:48 0.000651532
32 *1560:A2 *1571:B 2.97099e-05
33 *1560:A2 *153:86 3.7681e-05
34 *1568:A1 *1566:B1 3.86731e-05
35 *1568:A1 *153:51 5.5982e-05
36 *1568:A1 *288:25 1.61983e-05
37 *1568:A1 *289:16 1.35999e-05
38 *1568:A1 *462:19 0.000159842
39 *1594:A2 *313:12 1.00678e-05
40 *1594:A2 *385:100 5.56356e-05
41 *1594:A2 *473:52 7.61229e-06
42 *1615:A1 *1616:C1 5.56356e-05
43 *1615:A1 *331:6 2.93431e-05
44 *1644:A1 *348:10 4.9662e-05
45 *1644:A1 *476:8 0.000137651
46 *1644:A1 *476:15 0.000267167
47 *149:8 *469:37 0.000533904
48 *149:8 *478:53 0.000224329
49 *149:20 *1427:A 0.000168754
50 *149:20 *1497:A1 5.50106e-05
51 *149:20 *152:8 5.72749e-05
52 *149:20 *476:15 0.000979269
53 *149:20 *476:32 0.00013223
54 *149:20 *476:45 6.17437e-06
55 *149:20 *478:36 0.000141386
56 *149:43 *1616:A2 2.76611e-06
57 *149:43 *1618:B1 0.000262934
58 *149:43 *152:39 4.59507e-05
59 *149:43 *153:27 0
60 *149:43 *153:39 0
61 *149:43 *213:16 0.000186033
62 *149:43 *214:23 0.000154819
63 *149:43 *222:8 3.51865e-05
64 *149:43 *222:21 0.000112587
65 *149:43 *226:26 6.01171e-05
66 *149:43 *228:14 3.07161e-05
67 *149:43 *229:64 4.09412e-06
68 *149:43 *326:10 3.85986e-05
69 *149:43 *327:12 0.000281536
70 *149:43 *334:29 0
71 *149:68 *1616:A2 9.35752e-05
72 *149:68 *161:20 0.000416457
73 *149:68 *161:33 1.18349e-05
74 *149:68 *239:34 0.000133237
75 *149:68 *254:63 0
76 *149:68 *254:82 0.000148326
77 *149:68 *255:10 5.40866e-05
78 *149:68 *255:92 0.000189805
79 *149:68 *263:68 0.000706823
80 *149:68 *266:131 8.16944e-06
81 *149:68 *300:8 0.000149973
82 *149:68 *306:8 4.49946e-05
83 *149:68 *349:41 0.000214254
84 *149:68 *474:57 0.000141869
85 *149:70 *153:51 1.58805e-05
86 *149:70 *161:33 1.35518e-05
87 *149:70 *254:82 9.72587e-05
88 *149:70 *278:42 4.08641e-05
89 *149:70 *288:25 3.71694e-05
90 *149:70 *295:10 0.000371147
91 *149:70 *462:19 6.16531e-05
92 *149:70 *462:23 0.000395096
93 *149:74 *381:48 5.50106e-05
94 *149:85 *153:43 9.41704e-05
95 *149:85 *153:63 0.000272383
96 *149:85 *153:69 0.000138295
97 *149:85 *288:25 0
98 *149:85 *381:48 1.22822e-05
99 *149:104 *1569:A1 0.000160945
100 *149:104 *1569:B1 0.000160945
101 *149:104 *1571:B 1.46594e-05
102 *149:104 *153:69 1.13812e-05
103 *149:104 *162:126 0.000809228
104 *149:104 *241:10 0.000144494
105 *149:104 *349:41 1.06805e-05
106 *149:104 *463:29 9.28078e-06
107 *149:118 *153:86 7.97439e-06
108 *149:118 *162:112 0.00071075
109 *149:118 *162:126 0.000474898
110 *149:118 *284:8 3.50862e-06
111 *149:118 *382:191 4.95093e-05
112 *149:126 *161:86 0.000392261
113 *149:126 *266:155 0.000170277
114 *149:141 *1437:C1 1.22822e-05
115 *149:141 *153:104 6.2403e-05
116 *149:141 *161:78 7.21809e-05
117 *149:141 *164:14 8.2499e-05
118 *149:153 *1535:A 0.000185221
119 *149:153 *153:123 0
120 *149:153 *161:66 0.000343886
121 *149:153 *161:78 8.1019e-05
122 *149:153 *162:22 3.14347e-05
123 *149:153 *250:34 5.44904e-05
124 *149:153 *252:25 1.96778e-05
125 *149:153 *253:12 4.51431e-05
126 *149:153 *359:95 4.04052e-05
127 *149:153 *398:22 0.000296106
128 *114:10 *149:153 0
129 *143:8 *149:118 4.50551e-05
130 *148:39 *149:8 1.10658e-05
131 *148:41 *149:8 2.812e-05
132 *148:59 *149:43 0.00026478
*RES
1 *1422:X *149:8 47.6736 
2 *149:8 *149:20 34.5957 
3 *149:20 *1644:A1 27.4329 
4 *149:20 *149:43 34.3471 
5 *149:43 *1615:A1 38.6214 
6 *149:43 *149:68 43.3751 
7 *149:68 *149:70 8.7725 
8 *149:70 *149:74 15.6214 
9 *149:74 *1575:A2 23 
10 *149:74 *149:85 21.3386 
11 *149:85 *1569:A2 38 
12 *149:85 *149:104 29.2514 
13 *149:104 *149:118 36.4154 
14 *149:118 *149:126 20.4271 
15 *149:126 *1548:A1 32.3629 
16 *149:126 *149:141 2.54786 
17 *149:141 *149:153 47.9739 
18 *149:153 *1594:A2 38.6214 
19 *149:141 *1437:A1 23.6214 
20 *149:118 *1534:A2 39.595 
21 *149:104 *1560:A2 24.595 
22 *149:70 *1568:A1 41.3764 
*END

*D_NET *150 0.0211032
*CONN
*I *1521:A2 I *D sky130_fd_sc_hd__a311o_1
*I *1432:B I *D sky130_fd_sc_hd__and3_2
*I *1546:A2 I *D sky130_fd_sc_hd__a31o_1
*I *1431:A2 I *D sky130_fd_sc_hd__a21oi_2
*I *1696:A1 I *D sky130_fd_sc_hd__a22o_1
*I *1425:A I *D sky130_fd_sc_hd__nor2_2
*I *1481:A2 I *D sky130_fd_sc_hd__a211o_1
*I *1485:A2 I *D sky130_fd_sc_hd__a211o_1
*I *1445:B I *D sky130_fd_sc_hd__nand2_4
*I *1660:B2 I *D sky130_fd_sc_hd__a22o_1
*I *1423:X O *D sky130_fd_sc_hd__buf_4
*CAP
1 *1521:A2 0.000144506
2 *1432:B 0.000241502
3 *1546:A2 4.01155e-05
4 *1431:A2 2.32701e-05
5 *1696:A1 0
6 *1425:A 0
7 *1481:A2 0.000201561
8 *1485:A2 8.78696e-05
9 *1445:B 0
10 *1660:B2 1.13059e-05
11 *1423:X 0
12 *150:117 0.000454816
13 *150:113 0.000485421
14 *150:102 0.000819225
15 *150:95 0.00235193
16 *150:56 0.000432927
17 *150:48 0.000583439
18 *150:40 0.00319577
19 *150:36 0.00103213
20 *150:20 0.000963018
21 *150:8 0.00111718
22 *150:4 0.00016547
23 *1431:A2 *1431:A1 5.3304e-05
24 *1431:A2 *163:111 5.3304e-05
25 *1432:B *1432:A 8.06804e-06
26 *1432:B *1546:A1 2.25383e-05
27 *1432:B *200:37 9.26156e-06
28 *1432:B *483:40 4.56338e-05
29 *1481:A2 *1481:A1 0.000177379
30 *1481:A2 *151:43 0.000132638
31 *1481:A2 *223:10 0.000113141
32 *1481:A2 *228:29 9.87385e-06
33 *1481:A2 *486:68 2.11111e-05
34 *1485:A2 *1484:B1 5.71002e-06
35 *1485:A2 *1486:B 1.19088e-06
36 *1485:A2 *151:43 6.2088e-05
37 *1485:A2 *210:8 8.67802e-06
38 *1485:A2 *211:10 2.81425e-05
39 *1485:A2 *481:39 9.25866e-07
40 *1485:A2 *486:68 8.16757e-06
41 *1521:A2 *1521:A1 1.32314e-05
42 *1521:A2 *1521:A3 3.11946e-05
43 *1521:A2 *1521:C1 0.000191628
44 *1521:A2 *151:85 5.30518e-05
45 *1521:A2 *200:44 6.25829e-05
46 *1521:A2 *246:33 2.18506e-05
47 *1521:A2 *271:10 8.62876e-05
48 *1660:B2 *160:35 2.07484e-05
49 *1660:B2 *485:32 5.79559e-05
50 *150:8 *1423:A 0.000140259
51 *150:8 *1445:A 2.71617e-05
52 *150:8 *238:6 0.000396897
53 *150:20 *238:6 0.000161397
54 *150:20 *277:17 0.000163178
55 *150:20 *486:68 0.00083323
56 *150:20 *491:8 0.000182223
57 *150:20 *491:30 4.60157e-05
58 *150:40 *1428:A 0.000242048
59 *150:40 *1447:B 0
60 *150:40 *155:8 0
61 *150:40 *157:12 0
62 *150:40 *479:26 0.000403297
63 *150:48 *166:36 1.20476e-05
64 *150:48 *166:47 5.75756e-06
65 *150:48 *172:10 7.57281e-06
66 *150:48 *228:29 0.000583892
67 *150:56 *1425:B 1.1258e-05
68 *150:56 *151:43 1.32405e-05
69 *150:56 *210:8 8.96199e-05
70 *150:56 *481:39 0.000236659
71 *150:95 *1604:B1 2.59839e-05
72 *150:95 *1605:A2 1.05441e-05
73 *150:95 *228:29 0.00111042
74 *150:95 *259:125 0.000418022
75 *150:95 *278:125 2.26406e-05
76 *150:95 *359:18 9.85586e-06
77 *150:102 *1474:A2 0.000425916
78 *150:102 *151:74 0.000219611
79 *150:102 *157:12 0
80 *150:102 *200:25 0.00019904
81 *150:102 *386:12 7.44517e-05
82 *150:102 *400:55 0
83 *150:102 *479:26 0.000780962
84 *150:113 *151:74 1.16455e-05
85 *150:113 *151:85 0.000163176
86 *150:113 *200:25 0.000293311
87 *150:113 *200:44 7.48331e-05
88 *150:117 *1432:A 8.06804e-06
89 *150:117 *151:89 2.13733e-05
90 *150:117 *200:50 2.64616e-05
*RES
1 *1423:X *150:4 23 
2 *150:4 *150:8 4.93 
3 *150:8 *150:20 36.1286 
4 *150:20 *1660:B2 38.6214 
5 *150:8 *1445:B 23 
6 *150:4 *150:36 15 
7 *150:36 *150:40 16.7725 
8 *150:40 *150:48 24.4933 
9 *150:48 *150:56 18.9979 
10 *150:56 *1485:A2 39.7711 
11 *150:56 *1481:A2 42.8057 
12 *150:48 *1425:A 23 
13 *150:40 *150:95 29.3877 
14 *150:95 *1696:A1 23 
15 *150:36 *150:102 17.0479 
16 *150:102 *1431:A2 38.6214 
17 *150:102 *150:113 5.075 
18 *150:113 *150:117 17.0507 
19 *150:117 *1546:A2 23.8493 
20 *150:117 *1432:B 26.0036 
21 *150:113 *1521:A2 42.0807 
*END

*D_NET *151 0.0109112
*CONN
*I *1521:A3 I *D sky130_fd_sc_hd__a311o_1
*I *1432:A I *D sky130_fd_sc_hd__and3_2
*I *1546:A3 I *D sky130_fd_sc_hd__a31o_1
*I *1431:A1 I *D sky130_fd_sc_hd__a21oi_2
*I *1445:A I *D sky130_fd_sc_hd__nand2_4
*I *1425:B I *D sky130_fd_sc_hd__nor2_2
*I *1485:A1 I *D sky130_fd_sc_hd__a211o_1
*I *1481:A1 I *D sky130_fd_sc_hd__a211o_1
*I *1424:Y O *D sky130_fd_sc_hd__inv_2
*CAP
1 *1521:A3 0.000112397
2 *1432:A 0.000102454
3 *1546:A3 2.34823e-05
4 *1431:A1 9.32281e-05
5 *1445:A 0.000146366
6 *1425:B 1.88989e-05
7 *1485:A1 0
8 *1481:A1 8.1783e-05
9 *1424:Y 0.000105605
10 *151:89 0.000254181
11 *151:85 0.000523728
12 *151:74 0.00109366
13 *151:59 0.00119517
14 *151:43 0.000159687
15 *151:26 0.000589978
16 *151:10 0.000549491
17 *151:6 0.000619143
18 *1431:A1 *161:52 0.000117078
19 *1431:A1 *163:111 9.06164e-05
20 *1432:A *1546:A1 9.67842e-05
21 *1432:A *159:8 0.000180224
22 *1432:A *483:40 5.50106e-05
23 *1445:A *1423:A 0.000140259
24 *1481:A1 *1481:B1 3.04917e-05
25 *1481:A1 *1481:C1 5.5792e-05
26 *1481:A1 *223:10 1.41129e-05
27 *1481:A1 *228:29 2.57772e-05
28 *1521:A3 *271:10 8.85189e-05
29 *1521:A3 *383:171 0
30 *1546:A3 *483:40 0
31 *151:6 *1424:A 3.26241e-05
32 *151:6 *1428:B 4.84155e-05
33 *151:6 *481:39 0.000357144
34 *151:10 *1428:B 0.00021256
35 *151:10 *210:8 1.41129e-05
36 *151:10 *478:57 5.3304e-05
37 *151:10 *481:39 0.000198101
38 *151:26 *1481:B1 0.00010658
39 *151:26 *1481:C1 8.28627e-05
40 *151:26 *166:47 4.26047e-06
41 *151:26 *172:10 0.000132285
42 *151:26 *210:8 2.95423e-05
43 *151:26 *223:10 1.24376e-05
44 *151:26 *228:29 0.000121714
45 *151:26 *481:39 2.64616e-05
46 *151:43 *1484:B1 4.41821e-06
47 *151:43 *1496:A2 8.90195e-05
48 *151:43 *223:10 5.71002e-06
49 *151:59 *1428:A 0.000191812
50 *151:59 *479:26 0.00046806
51 *151:59 *484:8 1.86973e-05
52 *151:59 *484:10 0.000182323
53 *151:74 *205:18 0
54 *151:74 *383:171 0
55 *151:74 *479:26 0.000712181
56 *151:74 *484:8 8.19946e-05
57 *151:85 *383:171 0
58 *151:89 *200:50 7.15126e-05
59 *151:89 *271:10 9.58714e-05
60 *1431:A2 *1431:A1 5.3304e-05
61 *1432:B *1432:A 8.06804e-06
62 *1481:A2 *1481:A1 0.000177379
63 *1481:A2 *151:43 0.000132638
64 *1485:A2 *151:43 6.2088e-05
65 *1521:A2 *1521:A3 3.11946e-05
66 *1521:A2 *151:85 5.30518e-05
67 *63:8 *151:74 0
68 *150:8 *1445:A 2.71617e-05
69 *150:56 *1425:B 1.1258e-05
70 *150:56 *151:43 1.32405e-05
71 *150:102 *151:74 0.000219611
72 *150:113 *151:74 1.16455e-05
73 *150:113 *151:85 0.000163176
74 *150:117 *1432:A 8.06804e-06
75 *150:117 *151:89 2.13733e-05
*RES
1 *1424:Y *151:6 26.9564 
2 *151:6 *151:10 4.93 
3 *151:10 *151:26 36.67 
4 *151:26 *1481:A1 25.5479 
5 *151:26 *151:43 33.2729 
6 *151:43 *1485:A1 23 
7 *151:10 *1425:B 23.4971 
8 *151:6 *151:59 23.9486 
9 *151:59 *1445:A 41.045 
10 *151:59 *151:74 16.3436 
11 *151:74 *1431:A1 40.5271 
12 *151:74 *151:85 6.13143 
13 *151:85 *151:89 17.5271 
14 *151:89 *1546:A3 23.4971 
15 *151:89 *1432:A 25.5271 
16 *151:85 *1521:A3 40.4029 
*END

*D_NET *152 0.00603185
*CONN
*I *1426:A I *D sky130_fd_sc_hd__clkbuf_4
*I *1618:A2 I *D sky130_fd_sc_hd__o22a_1
*I *1623:B1 I *D sky130_fd_sc_hd__o32a_1
*I *1537:B I *D sky130_fd_sc_hd__nor2_4
*I *1425:Y O *D sky130_fd_sc_hd__nor2_2
*CAP
1 *1426:A 0
2 *1618:A2 0
3 *1623:B1 0
4 *1537:B 5.77645e-05
5 *1425:Y 0.000226163
6 *152:39 0.000387502
7 *152:29 0.00114076
8 *152:14 0.000867651
9 *152:12 0.000231713
10 *152:8 0.000401248
11 *1537:B *263:92 5.40241e-05
12 *152:8 *1427:A 3.47781e-05
13 *152:8 *1484:B1 1.05999e-05
14 *152:8 *166:36 5.53115e-05
15 *152:8 *172:10 0.000171368
16 *152:12 *1427:A 5.3304e-05
17 *152:12 *263:92 0.000138047
18 *152:12 *476:57 1.32314e-05
19 *152:14 *263:92 4.96717e-05
20 *152:29 *207:10 0.000625172
21 *152:29 *339:53 0.000219383
22 *152:29 *486:68 0.000161748
23 *152:39 *217:10 5.67058e-05
24 *152:39 *219:16 0.000144485
25 *152:39 *221:10 2.76611e-06
26 *152:39 *221:23 1.17152e-05
27 *152:39 *222:8 0.000206046
28 *152:39 *335:6 5.50106e-05
29 *152:39 *339:53 5.3304e-05
30 *148:45 *152:29 1.03955e-05
31 *148:59 *152:39 0.000488758
32 *149:20 *152:8 5.72749e-05
33 *149:43 *152:39 4.59507e-05
*RES
1 *1425:Y *152:8 43.075 
2 *152:8 *152:12 18.48 
3 *152:12 *152:14 1.09786 
4 *152:14 *1537:B 24.0979 
5 *152:14 *152:29 41.9314 
6 *152:29 *152:39 39.135 
7 *152:39 *1623:B1 23 
8 *152:29 *1618:A2 23 
9 *152:12 *1426:A 23 
*END

*D_NET *153 0.0293947
*CONN
*I *1615:A2 I *D sky130_fd_sc_hd__o221ai_1
*I *1534:A3 I *D sky130_fd_sc_hd__o31a_1
*I *1594:A3 I *D sky130_fd_sc_hd__o31a_1
*I *1437:A2 I *D sky130_fd_sc_hd__o221ai_1
*I *1548:A2 I *D sky130_fd_sc_hd__o21ai_1
*I *1560:A3 I *D sky130_fd_sc_hd__o31a_1
*I *1569:A3 I *D sky130_fd_sc_hd__o31a_1
*I *1575:A3 I *D sky130_fd_sc_hd__o31a_1
*I *1568:A2 I *D sky130_fd_sc_hd__o21ai_1
*I *1644:A2 I *D sky130_fd_sc_hd__o21ai_1
*I *1426:X O *D sky130_fd_sc_hd__clkbuf_4
*CAP
1 *1615:A2 0.000210977
2 *1534:A3 0
3 *1594:A3 0
4 *1437:A2 0
5 *1548:A2 0
6 *1560:A3 0
7 *1569:A3 0
8 *1575:A3 0
9 *1568:A2 0
10 *1644:A2 0.000210634
11 *1426:X 9.67541e-05
12 *153:138 0.000697223
13 *153:123 0.000796239
14 *153:117 0.00180516
15 *153:104 0.00106949
16 *153:95 0.00114407
17 *153:86 0.000357536
18 *153:76 0.00125149
19 *153:69 7.96187e-05
20 *153:63 0.000654951
21 *153:51 0.000163807
22 *153:43 0.00020279
23 *153:41 0.00010663
24 *153:39 0.00192905
25 *153:27 0.00288827
26 *153:12 0.00113343
27 *153:8 0.00027131
28 *1615:A2 *1616:C1 0.000145648
29 *1644:A2 *254:31 0.000517593
30 *1644:A2 *476:8 9.58714e-05
31 *1644:A2 *476:15 0.000503449
32 *153:8 *478:23 2.96154e-05
33 *153:8 *478:36 6.32792e-05
34 *153:8 *486:68 9.28945e-05
35 *153:12 *254:31 0.000866676
36 *153:12 *476:15 0.000753276
37 *153:12 *476:32 0.000125213
38 *153:27 *1612:B 6.8999e-05
39 *153:27 *221:23 0.000295737
40 *153:27 *222:8 3.95159e-06
41 *153:27 *222:21 0.000139201
42 *153:27 *229:64 1.05658e-05
43 *153:27 *263:43 0.000773961
44 *153:27 *327:12 3.95159e-06
45 *153:27 *328:12 0.000199239
46 *153:27 *339:53 0.000106427
47 *153:27 *468:53 0.000137754
48 *153:39 *1516:D 3.07161e-05
49 *153:39 *1577:A 3.56408e-05
50 *153:39 *1577:B 0.000116314
51 *153:39 *1616:A2 7.61771e-05
52 *153:39 *1616:B1 0.000119046
53 *153:39 *1647:B2 4.82477e-05
54 *153:39 *161:8 6.66825e-05
55 *153:39 *161:20 0.000182708
56 *153:39 *163:22 0.000111447
57 *153:39 *173:68 8.9458e-05
58 *153:39 *200:69 0.000183885
59 *153:39 *242:10 4.63058e-05
60 *153:39 *254:88 0.000166522
61 *153:39 *255:10 4.60263e-05
62 *153:39 *255:92 0.000538727
63 *153:39 *259:47 5.15805e-05
64 *153:39 *263:43 0.00033558
65 *153:39 *279:63 7.48497e-05
66 *153:39 *288:10 0.000469423
67 *153:39 *288:25 0.000215773
68 *153:39 *349:26 9.23705e-06
69 *153:39 *350:20 2.26497e-05
70 *153:39 *389:10 0
71 *153:39 *389:16 0
72 *153:39 *485:22 0.000160125
73 *153:43 *1575:B1 5.3304e-05
74 *153:43 *381:48 2.32004e-05
75 *153:51 *1566:B1 5.5792e-05
76 *153:51 *288:25 0.000136282
77 *153:51 *289:16 6.63793e-06
78 *153:63 *1575:B1 0.000127821
79 *153:63 *259:24 0.000185434
80 *153:69 *349:41 8.00205e-05
81 *153:76 *259:24 0.00107917
82 *153:86 *1560:B1 0.000166399
83 *153:86 *1571:B 9.09342e-06
84 *153:86 *259:24 0.000218056
85 *153:86 *278:28 0
86 *153:95 *1550:A2 0.000182832
87 *153:95 *259:24 2.18409e-05
88 *153:95 *275:10 9.84794e-05
89 *153:95 *381:48 0.000176048
90 *153:104 *1550:A2 3.32563e-05
91 *153:104 *164:14 5.79559e-05
92 *153:117 *164:14 0.000102011
93 *153:117 *390:113 0.000399727
94 *153:123 *1526:A1 1.47563e-05
95 *153:123 *1812:CLK 0.000401728
96 *153:123 *250:34 0
97 *153:123 *253:12 0
98 *153:123 *258:22 0.000110922
99 *153:123 *313:12 7.36728e-05
100 *153:123 *385:100 0.000230299
101 *153:123 *390:38 0.000412668
102 *153:123 *390:107 0.000250306
103 *153:123 *466:57 2.96051e-05
104 *153:138 *162:89 0
105 *153:138 *259:83 2.93335e-05
106 *153:138 *466:10 5.27678e-05
107 *153:138 *466:57 4.7638e-05
108 *1548:A1 *153:104 0.000267425
109 *1560:A2 *153:86 3.7681e-05
110 *1568:A1 *153:51 5.5982e-05
111 *1820:D *153:138 2.93431e-05
112 *1820:RESET_B *153:138 5.07583e-05
113 *93:8 *153:138 1.58201e-05
114 *114:10 *153:123 5.31444e-05
115 *123:10 *153:39 2.04774e-05
116 *143:8 *153:86 3.88629e-05
117 *146:10 *153:117 5.50106e-05
118 *148:51 *153:27 0.000100796
119 *149:43 *153:27 0
120 *149:43 *153:39 0
121 *149:70 *153:51 1.58805e-05
122 *149:85 *153:43 9.41704e-05
123 *149:85 *153:63 0.000272383
124 *149:85 *153:69 0.000138295
125 *149:104 *153:69 1.13812e-05
126 *149:118 *153:86 7.97439e-06
127 *149:141 *153:104 6.2403e-05
128 *149:153 *153:123 0
*RES
1 *1426:X *153:8 40.61 
2 *153:8 *153:12 24.6736 
3 *153:12 *1644:A2 29.815 
4 *153:12 *153:27 32.4621 
5 *153:27 *153:39 41.4079 
6 *153:39 *153:41 15 
7 *153:41 *153:43 1.09786 
8 *153:43 *153:51 33.0036 
9 *153:51 *1568:A2 23 
10 *153:43 *1575:A3 23 
11 *153:41 *153:63 3.48 
12 *153:63 *153:69 32.2579 
13 *153:69 *1569:A3 23 
14 *153:63 *153:76 12.0557 
15 *153:76 *153:86 36.67 
16 *153:86 *1560:A3 23 
17 *153:76 *153:95 8.265 
18 *153:95 *1548:A2 23 
19 *153:95 *153:104 10.6471 
20 *153:104 *1437:A2 23 
21 *153:104 *153:117 21.5043 
22 *153:117 *153:123 34.575 
23 *153:123 *1594:A3 23 
24 *153:117 *153:138 27.4079 
25 *153:138 *1534:A3 23 
26 *153:27 *1615:A2 41.0036 
*END

*D_NET *154 0.00295796
*CONN
*I *1447:A I *D sky130_fd_sc_hd__nand3_4
*I *1430:B I *D sky130_fd_sc_hd__nand4b_4
*I *1439:A I *D sky130_fd_sc_hd__clkbuf_4
*I *1427:Y O *D sky130_fd_sc_hd__nor2_2
*CAP
1 *1447:A 0
2 *1430:B 0
3 *1439:A 0
4 *1427:Y 7.48441e-05
5 *154:34 0.000219532
6 *154:19 0.000746156
7 *154:6 0.000601468
8 *154:6 *263:92 0.00010655
9 *154:19 *155:8 0
10 *154:19 *155:16 0.00014373
11 *154:19 *155:18 0.000113711
12 *154:19 *157:12 5.75756e-06
13 *154:19 *170:99 0.000466718
14 *154:19 *172:95 1.01436e-05
15 *154:19 *263:92 0.000198186
16 *154:34 *1430:A_N 5.11621e-05
17 *154:34 *1447:C 9.84851e-05
18 *154:34 *1448:A2 3.71369e-05
19 *154:34 *155:12 3.18322e-05
20 *154:34 *155:64 3.7122e-06
21 *154:34 *157:12 0
22 *154:34 *303:16 4.8838e-05
*RES
1 *1427:Y *154:6 25.0507 
2 *154:6 *1439:A 23 
3 *154:6 *154:19 42.905 
4 *154:19 *1430:B 23 
5 *154:19 *154:34 34.8057 
6 *154:34 *1447:A 23 
*END

*D_NET *155 0.00639428
*CONN
*I *1447:B I *D sky130_fd_sc_hd__nand3_4
*I *1440:B I *D sky130_fd_sc_hd__and3_1
*I *1430:C I *D sky130_fd_sc_hd__nand4b_4
*I *1506:A2 I *D sky130_fd_sc_hd__a211o_1
*I *1451:A2 I *D sky130_fd_sc_hd__a21oi_2
*I *1454:B I *D sky130_fd_sc_hd__nand2_2
*I *1461:B I *D sky130_fd_sc_hd__nand3_1
*I *1428:Y O *D sky130_fd_sc_hd__nor2_4
*CAP
1 *1447:B 0.000273128
2 *1440:B 0.000400537
3 *1430:C 5.28824e-05
4 *1506:A2 5.15729e-05
5 *1451:A2 0
6 *1454:B 9.34134e-05
7 *1461:B 3.16078e-05
8 *1428:Y 0.000131078
9 *155:64 0.00052971
10 *155:26 0.000319275
11 *155:18 0.000350177
12 *155:16 0.000469843
13 *155:12 0.000574161
14 *155:8 0.000639731
15 *1440:B *1430:A_N 1.04957e-05
16 *1440:B *1440:A 8.06804e-06
17 *1440:B *1440:C 8.09429e-05
18 *1447:B *1447:C 4.77059e-05
19 *1447:B *1448:A2 2.4754e-05
20 *1447:B *157:12 9.29634e-05
21 *1447:B *174:6 5.25848e-05
22 *1447:B *229:16 4.39725e-05
23 *1454:B *1454:A 0.000178671
24 *1454:B *254:16 1.23487e-05
25 *1454:B *492:109 3.7122e-06
26 *1461:B *480:33 0
27 *1506:A2 *233:8 9.67842e-05
28 *1506:A2 *469:37 1.21972e-05
29 *155:8 *170:99 7.70499e-06
30 *155:12 *1430:A_N 1.48077e-05
31 *155:16 *303:16 1.71301e-05
32 *155:16 *481:41 5.0456e-05
33 *155:16 *481:47 8.52212e-05
34 *155:18 *172:95 0.000186025
35 *155:18 *481:47 0.000428593
36 *155:26 *1454:A 0
37 *155:26 *1462:B1 1.40958e-05
38 *155:26 *172:95 0.000189035
39 *155:26 *254:16 0.000179457
40 *155:26 *480:33 1.32314e-05
41 *155:26 *481:47 0.000186804
42 *155:64 *1430:A_N 7.56141e-06
43 *148:35 *1506:A2 0.000138859
44 *150:40 *1447:B 0
45 *150:40 *155:8 0
46 *154:19 *155:8 0
47 *154:19 *155:16 0.00014373
48 *154:19 *155:18 0.000113711
49 *154:34 *155:12 3.18322e-05
50 *154:34 *155:64 3.7122e-06
*RES
1 *1428:Y *155:8 39.9057 
2 *155:8 *155:12 18.0036 
3 *155:12 *155:16 19.7229 
4 *155:16 *155:18 5.77929 
5 *155:18 *155:26 20.1993 
6 *155:26 *1461:B 23.8596 
7 *155:26 *1454:B 25.5064 
8 *155:18 *1451:A2 38 
9 *155:16 *1506:A2 39.5743 
10 *155:12 *155:64 1.09786 
11 *155:64 *1430:C 24.2014 
12 *155:64 *1440:B 27.9093 
13 *155:8 *1447:B 44.7114 
*END

*D_NET *156 0.0029273
*CONN
*I *1447:C I *D sky130_fd_sc_hd__nand3_4
*I *1440:C I *D sky130_fd_sc_hd__and3_1
*I *1430:D I *D sky130_fd_sc_hd__nand4b_4
*I *1429:Y O *D sky130_fd_sc_hd__nor2_2
*CAP
1 *1447:C 0.000223541
2 *1440:C 0.000143819
3 *1430:D 0
4 *1429:Y 0.000205494
5 *156:14 0.000143819
6 *156:12 0.000429035
7 *1440:C *1440:A 0.000179725
8 *1440:C *167:10 6.56834e-05
9 *1447:C *1440:A 2.53488e-05
10 *1447:C *1448:A2 6.28173e-05
11 *1447:C *171:8 0.000157496
12 *1447:C *229:16 0.000398552
13 *1447:C *303:16 3.20917e-05
14 *156:12 *1440:A 0.000167676
15 *156:12 *1444:B1 1.83107e-05
16 *156:12 *170:99 0.000225576
17 *156:12 *171:8 0.000165384
18 *156:12 *481:39 5.5792e-05
19 *1440:B *1440:C 8.09429e-05
20 *1447:B *1447:C 4.77059e-05
21 *154:34 *1447:C 9.84851e-05
*RES
1 *1429:Y *156:12 43.2821 
2 *156:12 *156:14 15 
3 *156:14 *1430:D 23 
4 *156:14 *1440:C 26.7286 
5 *156:12 *1447:C 45.1879 
*END

*D_NET *157 0.00605966
*CONN
*I *1525:B1 I *D sky130_fd_sc_hd__a221o_1
*I *1433:A1 I *D sky130_fd_sc_hd__a21oi_4
*I *1470:A2 I *D sky130_fd_sc_hd__o211ai_4
*I *1430:Y O *D sky130_fd_sc_hd__nand4b_4
*CAP
1 *1525:B1 0.000223369
2 *1433:A1 3.8344e-05
3 *1470:A2 0
4 *1430:Y 0
5 *157:23 0.000620211
6 *157:12 0.00102709
7 *157:6 0.000668588
8 *1433:A1 *1433:A2 0.000141355
9 *1433:A1 *390:10 0.000141355
10 *1525:B1 *1525:A1 1.14452e-05
11 *1525:B1 *1525:B2 0
12 *1525:B1 *160:8 5.14857e-05
13 *1525:B1 *256:21 0.00018395
14 *1525:B1 *483:53 8.56254e-05
15 *1525:B1 *483:111 6.08751e-05
16 *157:12 *1473:A2 0.000384177
17 *157:12 *1474:A2 0
18 *157:12 *174:10 0.000592924
19 *157:12 *174:53 1.23172e-05
20 *157:12 *303:16 0
21 *157:12 *400:36 2.64616e-05
22 *157:12 *400:55 0.000760438
23 *157:23 *1470:B1 0.000166857
24 *157:23 *1473:A2 1.22906e-05
25 *157:23 *160:8 0.000464213
26 *157:23 *256:21 8.17956e-05
27 *157:23 *303:10 5.69388e-05
28 *157:23 *303:16 0.000100871
29 *157:23 *400:36 4.79641e-05
30 *1447:B *157:12 9.29634e-05
31 *150:40 *157:12 0
32 *150:102 *157:12 0
33 *154:19 *157:12 5.75756e-06
34 *154:34 *157:12 0
*RES
1 *1430:Y *157:6 38 
2 *157:6 *157:12 32.6693 
3 *157:12 *1470:A2 23 
4 *157:12 *157:23 24.3421 
5 *157:23 *1433:A1 39.5743 
6 *157:23 *1525:B1 43.4271 
*END

*D_NET *158 0.00331484
*CONN
*I *1525:B2 I *D sky130_fd_sc_hd__a221o_1
*I *1433:A2 I *D sky130_fd_sc_hd__a21oi_4
*I *1473:B1 I *D sky130_fd_sc_hd__o21a_2
*I *1431:Y O *D sky130_fd_sc_hd__a21oi_2
*CAP
1 *1525:B2 0.000274019
2 *1433:A2 0.000302002
3 *1473:B1 0.000175328
4 *1431:Y 4.30303e-05
5 *158:19 0.000640026
6 *158:8 0.000282364
7 *1433:A2 *1433:B1 5.58003e-05
8 *1433:A2 *390:10 0.000128284
9 *1473:B1 *1473:A2 5.75756e-06
10 *1473:B1 *160:8 5.85678e-05
11 *1473:B1 *160:31 8.4898e-05
12 *1473:B1 *460:10 9.53795e-05
13 *1473:B1 *483:53 2.8133e-05
14 *1525:B2 *1433:B1 0.00029196
15 *1525:B2 *1525:A2 4.23395e-05
16 *1525:B2 *1525:C1 5.50106e-05
17 *1525:B2 *159:21 0.000109377
18 *1525:B2 *200:37 0.000138718
19 *1525:B2 *460:10 6.81663e-06
20 *1525:B2 *483:53 5.12479e-05
21 *1525:B2 *483:111 0.000153027
22 *158:8 *161:52 5.58003e-05
23 *158:19 *460:10 4.6749e-05
24 *158:19 *483:53 4.88501e-05
25 *1433:A1 *1433:A2 0.000141355
26 *1525:B1 *1525:B2 0
*RES
1 *1431:Y *158:8 38.6214 
2 *158:8 *1473:B1 42.0186 
3 *158:8 *158:19 1.55357 
4 *158:19 *1433:A2 43.4064 
5 *158:19 *1525:B2 45.5245 
*END

*D_NET *159 0.0105458
*CONN
*I *1525:C1 I *D sky130_fd_sc_hd__a221o_1
*I *1520:A1 I *D sky130_fd_sc_hd__o21ai_1
*I *1562:A I *D sky130_fd_sc_hd__or3b_1
*I *1577:A I *D sky130_fd_sc_hd__or3b_1
*I *1433:B1 I *D sky130_fd_sc_hd__a21oi_4
*I *1432:X O *D sky130_fd_sc_hd__and3_2
*CAP
1 *1525:C1 4.5193e-05
2 *1520:A1 0.000185415
3 *1562:A 0
4 *1577:A 0.000157888
5 *1433:B1 0.000207758
6 *1432:X 0.000280512
7 *159:58 0.000459489
8 *159:41 0.00161993
9 *159:27 0.00181886
10 *159:21 0.00074139
11 *159:8 0.000553576
12 *1433:B1 *385:92 2.02872e-05
13 *1433:B1 *390:10 5.58003e-05
14 *1433:B1 *460:10 0.000296357
15 *1520:A1 *1543:B 1.18862e-05
16 *1520:A1 *165:29 3.84098e-05
17 *1520:A1 *200:82 1.94812e-05
18 *1520:A1 *244:10 0
19 *1520:A1 *268:8 5.67058e-05
20 *1520:A1 *278:10 0.000110366
21 *1525:C1 *1525:A2 9.84851e-05
22 *1525:C1 *460:10 1.28035e-05
23 *1525:C1 *483:111 2.02872e-05
24 *1577:A *1577:B 0.000114083
25 *1577:A *1577:C_N 0.000263842
26 *1577:A *200:69 0.0001129
27 *1577:A *386:64 7.66914e-06
28 *159:8 *483:36 9.75779e-05
29 *159:8 *483:40 3.75171e-05
30 *159:21 *460:10 0.000109833
31 *159:27 *384:135 0.000135383
32 *159:41 *1517:A1 9.84851e-05
33 *159:41 *1517:B1 0.000137651
34 *159:41 *200:50 5.95773e-05
35 *159:41 *200:54 0.000197558
36 *159:41 *244:10 0
37 *159:41 *278:10 5.49607e-05
38 *159:41 *279:49 4.67488e-05
39 *159:41 *386:64 0.000135037
40 *159:58 *1438:A4 0.000248342
41 *159:58 *1577:C_N 0.000296017
42 *159:58 *200:69 0.000725007
43 *159:58 *259:47 1.38338e-05
44 *159:58 *296:10 0
45 *159:58 *349:41 0
46 *159:58 *462:42 0.000114854
47 *1432:A *159:8 0.000180224
48 *1433:A2 *1433:B1 5.58003e-05
49 *1525:B2 *1433:B1 0.00029196
50 *1525:B2 *1525:C1 5.50106e-05
51 *1525:B2 *159:21 0.000109377
52 *153:39 *1577:A 3.56408e-05
*RES
1 *1432:X *159:8 41.9564 
2 *159:8 *1433:B1 43.1164 
3 *159:8 *159:21 1.72964 
4 *159:21 *159:27 17.5157 
5 *159:27 *159:41 46.3539 
6 *159:41 *1577:A 42.0186 
7 *159:41 *159:58 27.0764 
8 *159:58 *1562:A 23 
9 *159:27 *1520:A1 42.2568 
10 *159:21 *1525:C1 39.4189 
*END

*D_NET *160 0.0102162
*CONN
*I *1434:A I *D sky130_fd_sc_hd__buf_4
*I *1513:B I *D sky130_fd_sc_hd__xor2_2
*I *1512:B I *D sky130_fd_sc_hd__xor2_2
*I *1470:B1 I *D sky130_fd_sc_hd__o211ai_4
*I *1433:Y O *D sky130_fd_sc_hd__a21oi_4
*CAP
1 *1434:A 0
2 *1513:B 0.000238477
3 *1512:B 9.2577e-05
4 *1470:B1 0.000170151
5 *1433:Y 0.00025119
6 *160:39 0.000570342
7 *160:35 0.00187922
8 *160:31 0.00185391
9 *160:8 0.000635317
10 *1470:B1 *1473:A2 0.000114074
11 *1470:B1 *400:36 2.62931e-05
12 *1512:B *1586:A1 4.21594e-06
13 *1512:B *279:23 1.0092e-05
14 *1512:B *474:25 5.45225e-05
15 *1512:B *491:61 0.000190822
16 *1513:B *1513:A 9.42669e-05
17 *1513:B *279:23 0.000198286
18 *1513:B *301:10 1.35714e-05
19 *1513:B *385:92 7.34072e-05
20 *1513:B *474:25 5.76837e-05
21 *1513:B *491:61 0.000413537
22 *160:8 *1473:A2 5.12025e-05
23 *160:8 *483:53 0.000237908
24 *160:31 *1473:A2 1.29516e-05
25 *160:31 *205:8 0.000181125
26 *160:31 *460:10 0.000131813
27 *160:35 *239:49 4.91025e-05
28 *160:35 *303:115 0.000784656
29 *160:35 *303:127 7.97392e-05
30 *160:35 *357:14 0.000175903
31 *160:35 *485:32 1.74069e-05
32 *160:39 *1584:A 0.000350832
33 *160:39 *239:49 0.000183043
34 *160:39 *485:16 0.0001718
35 *1473:B1 *160:8 5.85678e-05
36 *1473:B1 *160:31 8.4898e-05
37 *1525:B1 *160:8 5.14857e-05
38 *1660:B2 *160:35 2.07484e-05
39 *157:23 *1470:B1 0.000166857
40 *157:23 *160:8 0.000464213
*RES
1 *1433:Y *160:8 45.1879 
2 *160:8 *1470:B1 41.625 
3 *160:8 *160:31 48.9564 
4 *160:31 *160:35 22.7857 
5 *160:35 *160:39 21.3386 
6 *160:39 *1512:B 17.61 
7 *160:39 *1513:B 22.2811 
8 *160:35 *1434:A 23 
*END

*D_NET *161 0.0254258
*CONN
*I *1450:A2 I *D sky130_fd_sc_hd__a32oi_1
*I *1442:A2 I *D sky130_fd_sc_hd__a21oi_1
*I *1526:A2 I *D sky130_fd_sc_hd__a22oi_1
*I *1535:B I *D sky130_fd_sc_hd__xor2_1
*I *1437:B1 I *D sky130_fd_sc_hd__o221ai_1
*I *1518:B I *D sky130_fd_sc_hd__xor2_1
*I *1514:B I *D sky130_fd_sc_hd__xor2_2
*I *1438:B1 I *D sky130_fd_sc_hd__o41a_1
*I *1515:B I *D sky130_fd_sc_hd__xor2_2
*I *1563:B1 I *D sky130_fd_sc_hd__o21a_1
*I *1434:X O *D sky130_fd_sc_hd__buf_4
*CAP
1 *1450:A2 0
2 *1442:A2 0.000265729
3 *1526:A2 0.000230133
4 *1535:B 0
5 *1437:B1 0
6 *1518:B 0
7 *1514:B 0
8 *1438:B1 0.00013353
9 *1515:B 3.35774e-05
10 *1563:B1 9.1482e-05
11 *1434:X 0.000150266
12 *161:135 0.00080172
13 *161:98 0.00147881
14 *161:86 0.00213113
15 *161:78 0.000843981
16 *161:68 0.000241278
17 *161:66 0.00049504
18 *161:60 0.000709727
19 *161:52 0.00281526
20 *161:33 0.00024332
21 *161:20 0.000892213
22 *161:10 0.00250935
23 *161:8 0.000150266
24 *1438:B1 *165:8 4.05745e-05
25 *1438:B1 *242:10 9.84794e-05
26 *1438:B1 *462:32 0.000307289
27 *1442:A2 *176:16 0.000107631
28 *1442:A2 *204:8 1.59355e-05
29 *1515:B *462:32 4.70852e-05
30 *1526:A2 *1526:A1 2.18926e-05
31 *1526:A2 *1526:B2 2.43944e-05
32 *1526:A2 *250:34 1.83408e-05
33 *1526:A2 *261:10 5.3304e-05
34 *1563:B1 *1563:A1 0.000140259
35 *1563:B1 *286:16 2.65505e-05
36 *1563:B1 *295:10 2.64616e-05
37 *161:8 *389:10 0.000260041
38 *161:20 *1436:A 5.5792e-05
39 *161:20 *1579:A2 1.3523e-05
40 *161:20 *255:92 0.000289437
41 *161:20 *279:8 3.78835e-05
42 *161:20 *288:10 5.79427e-05
43 *161:20 *298:21 0.000186476
44 *161:20 *300:8 3.64004e-05
45 *161:20 *485:22 6.72393e-05
46 *161:33 *288:10 0.00018835
47 *161:33 *295:10 0.000139647
48 *161:52 *1436:A 0.000830718
49 *161:52 *1582:A 9.79925e-05
50 *161:52 *162:36 0.000179725
51 *161:52 *162:38 5.3304e-05
52 *161:52 *163:111 0.000116683
53 *161:52 *205:18 0.000127167
54 *161:52 *205:24 2.50118e-05
55 *161:52 *256:38 0.00022823
56 *161:52 *483:61 4.36552e-05
57 *161:60 *1732:A 0.000402392
58 *161:60 *266:155 0.000851522
59 *161:60 *479:22 0.000775003
60 *161:60 *483:36 3.32648e-05
61 *161:66 *253:12 4.15283e-06
62 *161:66 *398:22 0.000354508
63 *161:68 *1526:B2 4.67488e-05
64 *161:68 *261:10 4.31675e-05
65 *161:78 *1437:C1 0.000264744
66 *161:78 *164:14 2.80822e-05
67 *161:78 *398:22 0.000184893
68 *161:86 *1524:A 0.000104578
69 *161:86 *1534:A1 0.000226069
70 *161:86 *245:8 4.07777e-05
71 *161:86 *251:16 0
72 *161:86 *266:155 6.7177e-06
73 *161:86 *380:103 0.000725198
74 *161:86 *390:113 0
75 *161:86 *466:20 0.000165286
76 *161:98 *1552:B 0.000225616
77 *161:98 *1817:CLK 2.93431e-05
78 *161:98 *162:126 3.53826e-05
79 *161:98 *245:8 9.41704e-05
80 *161:98 *349:41 0.000159276
81 *161:98 *380:67 6.51374e-05
82 *161:98 *380:69 2.33782e-05
83 *161:98 *380:103 6.10547e-05
84 *161:98 *463:29 1.41891e-05
85 *161:135 *163:111 0.000178164
86 *161:135 *204:8 2.3164e-05
87 *161:135 *398:22 0
88 *1431:A1 *161:52 0.000117078
89 *1437:A1 *161:78 5.56356e-05
90 *1817:D *161:98 0.000199058
91 *1817:RESET_B *161:98 5.03464e-05
92 *145:10 *161:86 2.10502e-05
93 *149:68 *161:20 0.000416457
94 *149:68 *161:33 1.18349e-05
95 *149:70 *161:33 1.35518e-05
96 *149:126 *161:86 0.000392261
97 *149:141 *161:78 7.21809e-05
98 *149:153 *161:66 0.000343886
99 *149:153 *161:78 8.1019e-05
100 *153:39 *161:8 6.66825e-05
101 *153:39 *161:20 0.000182708
102 *158:8 *161:52 5.58003e-05
*RES
1 *1434:X *161:8 41.6664 
2 *161:8 *161:10 15 
3 *161:10 *161:20 30.9086 
4 *161:20 *1563:B1 40.0507 
5 *161:20 *161:33 17.61 
6 *161:33 *1515:B 0.548929 
7 *161:33 *1438:B1 26.48 
8 *161:10 *161:52 27.4671 
9 *161:52 *161:60 45.8464 
10 *161:60 *161:66 35.075 
11 *161:66 *161:68 1.09786 
12 *161:68 *161:78 35.6343 
13 *161:78 *161:86 46.8407 
14 *161:86 *161:98 38.0757 
15 *161:98 *1514:B 15 
16 *161:86 *1518:B 23 
17 *161:78 *1437:B1 23 
18 *161:68 *1535:B 23 
19 *161:66 *1526:A2 27.4018 
20 *161:52 *161:135 24.5286 
21 *161:135 *1442:A2 41.9979 
22 *161:135 *1450:A2 38 
*END

*D_NET *162 0.0255071
*CONN
*I *1533:A I *D sky130_fd_sc_hd__clkbuf_4
*I *1551:A I *D sky130_fd_sc_hd__or3_1
*I *1571:A I *D sky130_fd_sc_hd__or3b_1
*I *1569:B1 I *D sky130_fd_sc_hd__o31a_1
*I *1541:A I *D sky130_fd_sc_hd__or2_1
*I *1594:B1 I *D sky130_fd_sc_hd__o31a_1
*I *1660:A2 I *D sky130_fd_sc_hd__a22o_1
*I *1553:A I *D sky130_fd_sc_hd__nor2_1
*I *1658:A2 I *D sky130_fd_sc_hd__a22o_1
*I *1436:A I *D sky130_fd_sc_hd__clkbuf_4
*I *1435:X O *D sky130_fd_sc_hd__clkbuf_4
*CAP
1 *1533:A 0.000159496
2 *1551:A 7.25022e-05
3 *1571:A 0
4 *1569:B1 0.000111831
5 *1541:A 8.03001e-05
6 *1594:B1 0
7 *1660:A2 5.58012e-05
8 *1553:A 0.00047156
9 *1658:A2 2.18824e-05
10 *1436:A 0.000207771
11 *1435:X 0.000285344
12 *162:151 0.000608732
13 *162:126 0.00132847
14 *162:112 0.00104856
15 *162:95 0.00155803
16 *162:89 0.00159019
17 *162:56 0.000690364
18 *162:38 0.000253622
19 *162:36 0.00214983
20 *162:22 0.00284939
21 *162:8 0.00149298
22 *1436:A *1658:B2 0.000100069
23 *1436:A *279:6 8.70841e-05
24 *1436:A *485:22 0.000619411
25 *1533:A *259:14 5.3304e-05
26 *1533:A *381:56 0.000123426
27 *1541:A *266:155 1.59094e-05
28 *1551:A *1551:C 5.67464e-05
29 *1551:A *1571:B 0.000100486
30 *1551:A *1841:A 2.26406e-05
31 *1551:A *266:161 4.21921e-05
32 *1551:A *275:10 3.87221e-06
33 *1553:A *1553:B 2.16757e-05
34 *1553:A *238:10 2.16227e-05
35 *1553:A *277:6 0.00026808
36 *1553:A *277:17 0.000136738
37 *1553:A *384:122 0.000138392
38 *1569:B1 *1566:A1 5.58003e-05
39 *1569:B1 *290:8 5.82853e-05
40 *1569:B1 *349:41 7.51142e-05
41 *1569:B1 *463:29 4.80423e-06
42 *1660:A2 *303:127 5.30121e-05
43 *1660:A2 *357:14 4.67488e-05
44 *162:8 *1435:A 3.71369e-05
45 *162:8 *258:16 0.000109216
46 *162:22 *1668:A1 0.000102755
47 *162:22 *1812:CLK 5.11812e-05
48 *162:22 *263:114 0.000296413
49 *162:22 *278:113 4.80714e-05
50 *162:22 *313:22 0.000100678
51 *162:22 *390:38 8.12861e-05
52 *162:22 *390:107 6.12914e-05
53 *162:22 *398:22 0
54 *162:22 *458:20 6.17437e-06
55 *162:36 *1517:A1 4.9256e-05
56 *162:36 *1825:A 4.60157e-05
57 *162:36 *205:24 0.000160578
58 *162:36 *266:123 0
59 *162:36 *278:10 2.14518e-05
60 *162:36 *279:6 6.10741e-05
61 *162:36 *386:50 0.000304542
62 *162:36 *386:64 6.92544e-05
63 *162:38 *279:6 2.02872e-05
64 *162:56 *238:10 9.68343e-05
65 *162:56 *238:19 1.16455e-05
66 *162:56 *384:122 0.000243207
67 *162:89 *259:14 8.57485e-05
68 *162:89 *278:111 5.5383e-05
69 *162:89 *278:113 6.95768e-05
70 *162:89 *390:107 0.000131067
71 *162:89 *466:10 0.000135616
72 *162:95 *1542:A2_N 8.36198e-05
73 *162:95 *259:14 0.000345252
74 *162:95 *259:18 0.000350746
75 *162:112 *1542:A2_N 9.56285e-05
76 *162:112 *382:191 0.000150137
77 *162:112 *460:10 0
78 *162:126 *1571:B 0.000884022
79 *162:126 *349:41 5.09387e-06
80 *162:126 *382:170 6.95347e-05
81 *162:126 *382:191 4.55121e-05
82 *162:126 *463:29 1.67858e-05
83 *162:126 *464:14 2.05503e-05
84 *162:151 *1571:B 6.17437e-06
85 *162:151 *1572:B 1.83107e-05
86 *162:151 *289:16 1.00359e-05
87 *162:151 *382:170 6.08207e-05
88 *162:151 *462:19 7.44107e-05
89 *162:151 *491:65 2.11417e-05
90 *61:8 *162:22 0.000199701
91 *114:10 *162:22 1.33439e-05
92 *116:8 *1553:A 8.4047e-05
93 *142:10 *162:151 1.21972e-05
94 *149:104 *1569:B1 0.000160945
95 *149:104 *162:126 0.000809228
96 *149:118 *162:112 0.00071075
97 *149:118 *162:126 0.000474898
98 *149:153 *162:22 3.14347e-05
99 *153:138 *162:89 0
100 *161:20 *1436:A 5.5792e-05
101 *161:52 *1436:A 0.000830718
102 *161:52 *162:36 0.000179725
103 *161:52 *162:38 5.3304e-05
104 *161:98 *162:126 3.53826e-05
*RES
1 *1435:X *162:8 43.3857 
2 *162:8 *162:22 48.27 
3 *162:22 *162:36 39.3736 
4 *162:36 *162:38 0.621429 
5 *162:38 *1436:A 32.6736 
6 *162:38 *1658:A2 23.4971 
7 *162:36 *162:56 18.6664 
8 *162:56 *1553:A 45.6643 
9 *162:56 *1660:A2 39.0979 
10 *162:22 *1594:B1 38 
11 *162:8 *162:89 22.1879 
12 *162:89 *162:95 30.6393 
13 *162:95 *1541:A 39.1186 
14 *162:95 *162:112 10.8074 
15 *162:112 *162:126 49.7543 
16 *162:126 *1569:B1 41.0554 
17 *162:126 *162:151 34.4405 
18 *162:151 *1571:A 23 
19 *162:112 *1551:A 47.8954 
20 *162:89 *1533:A 26.5007 
*END

*D_NET *163 0.043079
*CONN
*I *1696:A2 I *D sky130_fd_sc_hd__a22o_1
*I *1695:B1 I *D sky130_fd_sc_hd__o21a_1
*I *1706:A1 I *D sky130_fd_sc_hd__a21oi_1
*I *1437:C1 I *D sky130_fd_sc_hd__o221ai_1
*I *1531:A2 I *D sky130_fd_sc_hd__a21oi_1
*I *1621:B2 I *D sky130_fd_sc_hd__a22o_1
*I *1626:B2 I *D sky130_fd_sc_hd__a22o_1
*I *1600:B2 I *D sky130_fd_sc_hd__a22o_1
*I *1610:B2 I *D sky130_fd_sc_hd__a22o_1
*I *1647:B2 I *D sky130_fd_sc_hd__a221o_1
*I *1436:X O *D sky130_fd_sc_hd__clkbuf_4
*CAP
1 *1696:A2 7.59543e-05
2 *1695:B1 0.000283911
3 *1706:A1 0
4 *1437:C1 0.000915501
5 *1531:A2 0
6 *1621:B2 0
7 *1626:B2 9.0958e-05
8 *1600:B2 0
9 *1610:B2 0
10 *1647:B2 3.71115e-05
11 *1436:X 0.000194945
12 *163:167 0.000729491
13 *163:134 0.00188928
14 *163:124 0.00200286
15 *163:118 0.00141851
16 *163:111 0.00284795
17 *163:78 0.000297483
18 *163:61 0.00284466
19 *163:55 0.00267248
20 *163:51 0.000586206
21 *163:49 0.0036537
22 *163:22 0.00339094
23 *163:18 0.00081462
24 *163:6 0.00376765
25 *1437:C1 *1532:A2_N 9.92345e-05
26 *1437:C1 *1706:A2 6.68617e-05
27 *1437:C1 *1706:B1 5.50049e-05
28 *1437:C1 *1771:CLK 7.3685e-05
29 *1437:C1 *164:14 5.91638e-05
30 *1437:C1 *390:113 9.70835e-05
31 *1647:B2 *263:43 3.01354e-05
32 *1647:B2 *473:8 1.41129e-05
33 *1647:B2 *491:55 2.4878e-05
34 *1696:A2 *492:14 0.000137533
35 *163:6 *356:8 0.000273584
36 *163:18 *239:49 0
37 *163:18 *277:17 0
38 *163:18 *389:10 0
39 *163:18 *389:16 0
40 *163:18 *389:25 3.18969e-05
41 *163:18 *485:32 0
42 *163:22 *491:55 4.51403e-05
43 *163:49 *266:131 0
44 *163:49 *334:29 2.10832e-05
45 *163:49 *349:16 0.000466933
46 *163:49 *349:26 4.44377e-05
47 *163:49 *349:41 3.74068e-05
48 *163:49 *350:20 0.000116761
49 *163:49 *461:14 3.85415e-05
50 *163:51 *334:29 6.07611e-06
51 *163:51 *338:10 0
52 *163:51 *461:14 0.000351042
53 *163:51 *461:64 4.20429e-05
54 *163:61 *1652:A1 0.000474015
55 *163:61 *259:167 1.84831e-05
56 *163:61 *388:41 0.000340899
57 *163:61 *388:49 6.19955e-05
58 *163:61 *388:65 0.000688987
59 *163:61 *469:14 5.81185e-05
60 *163:61 *490:10 0.000221754
61 *163:61 *490:20 0.000229
62 *163:61 *490:46 9.66585e-05
63 *163:78 *1600:A2 0.000426653
64 *163:78 *1755:A 2.02872e-05
65 *163:78 *325:14 8.85041e-05
66 *163:78 *388:65 0.000193323
67 *163:78 *469:29 0.000138747
68 *163:111 *1531:B1 7.64059e-06
69 *163:111 *205:18 0.000243734
70 *163:111 *255:77 8.86967e-05
71 *163:111 *256:38 6.55954e-05
72 *163:111 *258:10 0.000409875
73 *163:111 *279:6 0.000205612
74 *163:111 *303:10 5.5792e-05
75 *163:111 *356:8 0.000571672
76 *163:111 *472:18 3.21806e-05
77 *163:111 *483:61 0.000271584
78 *163:118 *1531:B1 5.5792e-05
79 *163:124 *256:55 0
80 *163:124 *321:21 0.00145717
81 *163:124 *359:16 0
82 *163:124 *424:12 0.000146643
83 *163:124 *472:8 3.56377e-05
84 *163:124 *493:8 4.334e-05
85 *163:134 *1706:A2 4.99815e-05
86 *163:134 *259:94 0
87 *163:134 *278:111 8.85189e-05
88 *163:167 *1531:B1 9.66668e-05
89 *163:167 *278:123 0.0010819
90 *163:167 *278:125 0.000678488
91 *163:167 *321:21 0.001921
92 *1431:A1 *163:111 9.06164e-05
93 *1431:A2 *163:111 5.3304e-05
94 *1548:A1 *1437:C1 6.26126e-05
95 *39:10 *163:134 0.000188555
96 *70:10 *163:18 0.000117502
97 *85:10 *163:124 0
98 *99:6 *1695:B1 0.000100805
99 *123:10 *163:22 3.3746e-05
100 *135:8 *163:61 0.000202736
101 *135:8 *163:78 0.00018578
102 *149:141 *1437:C1 1.22822e-05
103 *153:39 *1647:B2 4.82477e-05
104 *153:39 *163:22 0.000111447
105 *161:52 *163:111 0.000116683
106 *161:78 *1437:C1 0.000264744
107 *161:135 *163:111 0.000178164
*RES
1 *1436:X *163:6 26.0036 
2 *163:6 *163:18 40.9786 
3 *163:18 *163:22 16.7296 
4 *163:22 *1647:B2 39.0046 
5 *163:22 *163:49 39.8785 
6 *163:49 *163:51 8.24429 
7 *163:51 *163:55 17.2579 
8 *163:55 *163:61 41.9879 
9 *163:61 *1610:B2 23 
10 *163:61 *163:78 39.0729 
11 *163:78 *1600:B2 23 
12 *163:51 *1626:B2 39.5743 
13 *163:49 *1621:B2 38 
14 *163:6 *163:111 47.8914 
15 *163:111 *1531:A2 23 
16 *163:111 *163:118 0.621429 
17 *163:118 *163:124 49.5129 
18 *163:124 *163:134 43.5057 
19 *163:134 *1437:C1 36.8993 
20 *163:134 *1706:A1 23 
21 *163:124 *1695:B1 28.3857 
22 *163:118 *163:167 42.0943 
23 *163:167 *1696:A2 39.5743 
*END

*D_NET *164 0.000797826
*CONN
*I *1532:A1_N I *D sky130_fd_sc_hd__a2bb2o_1
*I *1437:Y O *D sky130_fd_sc_hd__o221ai_1
*CAP
1 *1532:A1_N 0
2 *1437:Y 0.000121662
3 *164:14 0.000121662
4 *164:14 *1532:A2_N 5.56356e-05
5 *164:14 *390:113 0.000139977
6 *1437:A1 *164:14 2.91772e-05
7 *1437:C1 *164:14 5.91638e-05
8 *149:141 *164:14 8.2499e-05
9 *153:104 *164:14 5.79559e-05
10 *153:117 *164:14 0.000102011
11 *161:78 *164:14 2.80822e-05
*RES
1 *1437:Y *164:14 27.7643 
2 *164:14 *1532:A1_N 23 
*END

*D_NET *165 0.00475483
*CONN
*I *1544:A1 I *D sky130_fd_sc_hd__o21bai_2
*I *1523:A1 I *D sky130_fd_sc_hd__o21bai_2
*I *1557:B1 I *D sky130_fd_sc_hd__a21o_1
*I *1438:X O *D sky130_fd_sc_hd__o41a_1
*CAP
1 *1544:A1 0
2 *1523:A1 0
3 *1557:B1 0.000127781
4 *1438:X 0.000857871
5 *165:39 0.000219303
6 *165:29 0.000369852
7 *165:10 0.000434276
8 *165:8 0.00101382
9 *1557:B1 *173:105 6.34577e-05
10 *1557:B1 *200:82 0.000166522
11 *1557:B1 *243:10 6.77463e-05
12 *1557:B1 *384:122 1.02387e-05
13 *1557:B1 *389:157 0
14 *165:8 *1559:B1 1.61361e-05
15 *165:8 *1559:B2 0.000192068
16 *165:8 *173:125 9.92279e-05
17 *165:8 *242:10 5.50049e-05
18 *165:8 *254:99 1.72605e-05
19 *165:8 *462:32 4.56219e-05
20 *165:10 *173:105 0.000115915
21 *165:10 *269:10 6.16643e-05
22 *165:10 *384:122 1.59249e-05
23 *165:29 *200:82 0.000144231
24 *165:29 *268:8 0.00013961
25 *165:29 *269:10 5.50049e-05
26 *165:39 *1523:A2 9.91113e-05
27 *165:39 *244:10 2.75733e-06
28 *165:39 *249:8 0.000181125
29 *165:39 *250:6 4.9662e-05
30 *165:39 *269:31 1.22822e-05
31 *165:39 *278:10 4.23717e-05
32 *1438:B1 *165:8 4.05745e-05
33 *1520:A1 *165:29 3.84098e-05
*RES
1 *1438:X *165:8 49.1029 
2 *165:8 *165:10 2.61 
3 *165:10 *1557:B1 41.2314 
4 *165:10 *165:29 19.4743 
5 *165:29 *165:39 34.8057 
6 *165:39 *1523:A1 23 
7 *165:29 *1544:A1 23 
*END

*D_NET *166 0.010853
*CONN
*I *1440:A I *D sky130_fd_sc_hd__and3_1
*I *1506:A1 I *D sky130_fd_sc_hd__a211o_1
*I *1451:A1 I *D sky130_fd_sc_hd__a21oi_2
*I *1454:A I *D sky130_fd_sc_hd__nand2_2
*I *1461:A I *D sky130_fd_sc_hd__nand3_1
*I *1496:A1 I *D sky130_fd_sc_hd__a211o_1
*I *1481:C1 I *D sky130_fd_sc_hd__a211o_1
*I *1485:C1 I *D sky130_fd_sc_hd__a211o_1
*I *1484:A2 I *D sky130_fd_sc_hd__o21ai_1
*I *1480:A2 I *D sky130_fd_sc_hd__o21ai_1
*I *1439:X O *D sky130_fd_sc_hd__clkbuf_4
*CAP
1 *1440:A 0.000396865
2 *1506:A1 2.32701e-05
3 *1451:A1 5.89509e-05
4 *1454:A 7.98985e-05
5 *1461:A 4.00783e-05
6 *1496:A1 0
7 *1481:C1 8.07002e-05
8 *1485:C1 0
9 *1484:A2 7.18257e-05
10 *1480:A2 7.19723e-05
11 *1439:X 0
12 *166:104 0.000497456
13 *166:73 0.000251934
14 *166:71 0.000298688
15 *166:69 0.000646172
16 *166:47 0.000217312
17 *166:36 0.0005027
18 *166:12 0.000143798
19 *166:10 0.00100953
20 *166:4 0.00110451
21 *1440:A *1429:B 0.00012215
22 *1440:A *1430:A_N 0.000135037
23 *1440:A *172:68 0
24 *1440:A *259:125 1.12695e-05
25 *1440:A *303:16 0.000189047
26 *1440:A *480:94 9.28078e-06
27 *1440:A *492:42 0
28 *1451:A1 *179:26 0.000135037
29 *1454:A *254:16 0.000182832
30 *1454:A *492:109 1.14876e-05
31 *1461:A *259:125 5.79489e-05
32 *1461:A *492:44 1.61969e-05
33 *1480:A2 *1480:B1 1.24376e-05
34 *1480:A2 *207:10 5.67058e-05
35 *1481:C1 *1481:B1 0.000187145
36 *1484:A2 *1480:B1 5.3304e-05
37 *1484:A2 *478:53 4.2573e-05
38 *1506:A1 *233:8 5.3304e-05
39 *166:10 *263:92 0.000827462
40 *166:10 *478:36 8.4047e-05
41 *166:10 *486:68 2.79004e-05
42 *166:36 *1484:B1 0.000196233
43 *166:36 *1496:A2 1.13812e-05
44 *166:36 *478:36 3.47781e-05
45 *166:36 *486:68 1.18474e-05
46 *166:47 *1496:A2 0.000229669
47 *166:47 *228:29 9.09657e-05
48 *166:69 *263:92 0.000592261
49 *166:71 *259:125 0.000259017
50 *166:71 *480:94 0.000114083
51 *166:73 *259:125 0.000178773
52 *166:73 *492:44 3.46344e-05
53 *166:104 *259:125 0.000149507
54 *166:104 *480:94 0.000159651
55 *1440:B *1440:A 8.06804e-06
56 *1440:C *1440:A 0.000179725
57 *1447:C *1440:A 2.53488e-05
58 *1454:B *1454:A 0.000178671
59 *1481:A1 *1481:C1 5.5792e-05
60 *148:16 *1451:A1 0.000135037
61 *148:26 *166:71 7.55595e-05
62 *148:26 *166:73 2.96051e-05
63 *148:35 *1506:A1 5.3304e-05
64 *148:43 *1480:A2 1.03836e-05
65 *150:48 *166:36 1.20476e-05
66 *150:48 *166:47 5.75756e-06
67 *151:26 *1481:C1 8.28627e-05
68 *151:26 *166:47 4.26047e-06
69 *152:8 *166:36 5.53115e-05
70 *155:26 *1454:A 0
71 *156:12 *1440:A 0.000167676
*RES
1 *1439:X *166:4 23 
2 *166:4 *166:10 25.3986 
3 *166:10 *166:12 15 
4 *166:12 *1480:A2 24.0979 
5 *166:12 *1484:A2 24.0979 
6 *166:10 *166:36 20.125 
7 *166:36 *1485:C1 38 
8 *166:36 *166:47 18.3143 
9 *166:47 *1481:C1 26.19 
10 *166:47 *1496:A1 23 
11 *166:4 *166:69 21.815 
12 *166:69 *166:71 3.66643 
13 *166:71 *166:73 2.61 
14 *166:73 *1461:A 38.8493 
15 *166:73 *1454:A 40.9 
16 *166:71 *1451:A1 39.5743 
17 *166:69 *166:104 2.25786 
18 *166:104 *1506:A1 38.6214 
19 *166:104 *1440:A 46.6586 
*END

*D_NET *167 0.00306932
*CONN
*I *1441:B I *D sky130_fd_sc_hd__nand3b_1
*I *1449:A1 I *D sky130_fd_sc_hd__o21ai_1
*I *1440:X O *D sky130_fd_sc_hd__and3_1
*CAP
1 *1441:B 0.000476841
2 *1449:A1 0.00013196
3 *1440:X 0.000354746
4 *167:10 0.000963546
5 *1441:B *1475:A 6.10551e-06
6 *1441:B *172:48 0.000222796
7 *1441:B *172:68 0.000151907
8 *1441:B *176:16 0
9 *1441:B *193:71 6.3303e-05
10 *1441:B *361:36 0
11 *1441:B *482:91 8.34873e-05
12 *1441:B *482:104 4.77164e-06
13 *1449:A1 *176:8 4.9662e-05
14 *1449:A1 *238:6 0.00011499
15 *1449:A1 *266:119 3.22879e-05
16 *167:10 *172:68 0.000347238
17 *1440:C *167:10 6.56834e-05
*RES
1 *1440:X *167:10 44.2971 
2 *167:10 *1449:A1 41.0243 
3 *167:10 *1441:B 47.3629 
*END

*D_NET *168 0.00250891
*CONN
*I *1450:A3 I *D sky130_fd_sc_hd__a32oi_1
*I *1442:A1 I *D sky130_fd_sc_hd__a21oi_1
*I *1441:Y O *D sky130_fd_sc_hd__nand3b_1
*CAP
1 *1450:A3 0.000317732
2 *1442:A1 0.000115022
3 *1441:Y 0.000197119
4 *168:10 0.000629873
5 *1442:A1 *1646:C 2.12505e-05
6 *1442:A1 *169:10 0.000101724
7 *1442:A1 *197:6 4.65096e-05
8 *1442:A1 *473:32 0.000186606
9 *1450:A3 *1450:A1 0.000181476
10 *1450:A3 *1450:B2 0.000103974
11 *1450:A3 *1478:A2 4.16038e-05
12 *1450:A3 *1478:B2 1.79419e-05
13 *1450:A3 *176:16 3.35903e-05
14 *1450:A3 *193:71 0.000103949
15 *1450:A3 *398:22 4.68874e-05
16 *1450:A3 *473:52 0.000146323
17 *168:10 *193:71 0.000187986
18 *168:10 *201:6 2.93431e-05
*RES
1 *1441:Y *168:10 41.2314 
2 *168:10 *1442:A1 41.0036 
3 *168:10 *1450:A3 45.4571 
*END

*D_NET *169 0.00063728
*CONN
*I *1478:A1 I *D sky130_fd_sc_hd__o22a_1
*I *1442:Y O *D sky130_fd_sc_hd__a21oi_1
*CAP
1 *1478:A1 0
2 *1442:Y 0.000156283
3 *169:10 0.000156283
4 *169:10 *176:16 1.28008e-05
5 *169:10 *398:22 0.000127262
6 *169:10 *473:38 8.29264e-05
7 *1442:A1 *169:10 0.000101724
*RES
1 *1442:Y *169:10 41.0346 
2 *169:10 *1478:A1 38 
*END

*D_NET *170 0.00983276
*CONN
*I *1444:A2 I *D sky130_fd_sc_hd__o21ai_1
*I *1527:A I *D sky130_fd_sc_hd__nand2_4
*I *1458:A2 I *D sky130_fd_sc_hd__o211a_1
*I *1455:A2 I *D sky130_fd_sc_hd__o21a_1
*I *1463:A1 I *D sky130_fd_sc_hd__o21ai_1
*I *1489:A2 I *D sky130_fd_sc_hd__o211ai_1
*I *1443:Y O *D sky130_fd_sc_hd__inv_2
*CAP
1 *1444:A2 0
2 *1527:A 0
3 *1458:A2 0.000295734
4 *1455:A2 5.87202e-05
5 *1463:A1 0
6 *1489:A2 0
7 *1443:Y 0
8 *170:99 0.00087276
9 *170:50 0.00106085
10 *170:31 0.000914685
11 *170:25 0.000292206
12 *170:21 0.00118029
13 *170:14 0.00034426
14 *170:4 0.000567867
15 *1455:A2 *1453:B1_N 2.46906e-05
16 *1455:A2 *1455:A1 5.79559e-05
17 *1455:A2 *1456:B1 5.40087e-05
18 *1455:A2 *181:23 0.000145175
19 *1458:A2 *1452:A 5.58873e-06
20 *1458:A2 *1458:B1 1.12349e-05
21 *1458:A2 *179:40 0.000114905
22 *1458:A2 *181:10 0
23 *1458:A2 *181:53 0
24 *1458:A2 *185:10 0.000184125
25 *1458:A2 *254:16 2.18286e-05
26 *170:14 *1489:A1 0.000222785
27 *170:14 *254:31 0.000186606
28 *170:14 *480:33 0.000353422
29 *170:14 *492:68 7.40939e-05
30 *170:21 *254:31 0.000270682
31 *170:25 *254:10 7.70737e-05
32 *170:25 *254:31 8.4047e-05
33 *170:31 *1464:B1 7.53384e-06
34 *170:31 *254:10 1.01436e-05
35 *170:31 *266:28 1.44813e-05
36 *170:31 *492:66 0.000271476
37 *170:50 *1464:B1 3.22879e-05
38 *170:50 *266:22 0
39 *170:50 *266:28 0
40 *170:50 *480:41 3.74271e-05
41 *170:50 *480:56 3.39061e-05
42 *170:50 *481:59 0.000230019
43 *170:50 *492:58 2.42216e-05
44 *170:50 *492:66 4.34745e-05
45 *170:99 *1429:A 1.46205e-05
46 *170:99 *1429:B 0.000110904
47 *170:99 *1444:A1 5.58003e-05
48 *170:99 *172:95 0.000127427
49 *170:99 *266:28 2.50227e-05
50 *170:99 *481:39 9.37021e-05
51 *170:99 *492:126 0.000111963
52 *148:12 *170:25 7.81176e-05
53 *148:12 *170:31 0.000171338
54 *148:12 *170:50 0
55 *148:12 *170:99 3.35885e-06
56 *148:16 *170:99 7.15126e-05
57 *148:118 *1458:A2 8.84281e-05
58 *154:19 *170:99 0.000466718
59 *155:8 *170:99 7.70499e-06
60 *156:12 *170:99 0.000225576
*RES
1 *1443:Y *170:4 23 
2 *170:4 *170:14 37.5607 
3 *170:14 *1489:A2 23 
4 *170:4 *170:21 3.48 
5 *170:21 *170:25 17.2579 
6 *170:25 *170:31 20.6136 
7 *170:31 *1463:A1 23 
8 *170:31 *170:50 33.8695 
9 *170:50 *1455:A2 40.4236 
10 *170:50 *1458:A2 43.9864 
11 *170:25 *1527:A 38 
12 *170:21 *170:99 47.6071 
13 *170:99 *1444:A2 23 
*END

*D_NET *171 0.00137113
*CONN
*I *1449:A2 I *D sky130_fd_sc_hd__o21ai_1
*I *1444:Y O *D sky130_fd_sc_hd__o21ai_1
*CAP
1 *1449:A2 0
2 *1444:Y 0.000275644
3 *171:8 0.000275644
4 *171:8 *1444:B1 0.000214403
5 *171:8 *303:16 0
6 *171:8 *482:50 0.000154138
7 *171:8 *482:52 0.000128422
8 *1447:C *171:8 0.000157496
9 *156:12 *171:8 0.000165384
*RES
1 *1444:Y *171:8 44.8357 
2 *171:8 *1449:A2 38 
*END

*D_NET *172 0.0152629
*CONN
*I *1446:A I *D sky130_fd_sc_hd__clkbuf_4
*I *1504:A3 I *D sky130_fd_sc_hd__a31o_1
*I *1462:A1 I *D sky130_fd_sc_hd__a21oi_1
*I *1505:A1 I *D sky130_fd_sc_hd__a21o_1
*I *1467:A1 I *D sky130_fd_sc_hd__a21oi_2
*I *1475:C I *D sky130_fd_sc_hd__and3_1
*I *1472:A2 I *D sky130_fd_sc_hd__o22ai_1
*I *1497:B1 I *D sky130_fd_sc_hd__o31ai_1
*I *1445:Y O *D sky130_fd_sc_hd__nand2_4
*CAP
1 *1446:A 0
2 *1504:A3 0.00010373
3 *1462:A1 0
4 *1505:A1 0.000295761
5 *1467:A1 0.000258447
6 *1475:C 0
7 *1472:A2 0
8 *1497:B1 0
9 *1445:Y 0
10 *172:95 0.000492141
11 *172:87 0.000617352
12 *172:68 0.00106051
13 *172:48 0.000687114
14 *172:38 0.00157706
15 *172:27 0.000107356
16 *172:21 0.00118038
17 *172:10 0.000720298
18 *172:6 0.0013882
19 *1467:A1 *194:23 4.00259e-06
20 *1467:A1 *195:10 0.000400187
21 *1467:A1 *202:10 0.000151234
22 *1467:A1 *472:47 2.79636e-05
23 *1467:A1 *482:44 5.61952e-06
24 *1504:A3 *1504:A2 0.000100069
25 *1504:A3 *263:92 0.000403984
26 *1504:A3 *480:94 0.000344767
27 *1505:A1 *1504:A1 1.63009e-05
28 *1505:A1 *179:14 4.6318e-06
29 *1505:A1 *181:53 2.24366e-06
30 *1505:A1 *232:10 2.93431e-05
31 *1505:A1 *492:44 7.32258e-05
32 *172:10 *1420:B 0
33 *172:10 *1427:A 1.52259e-05
34 *172:10 *1481:B1 0.000148509
35 *172:10 *223:10 0
36 *172:10 *224:10 0.000187416
37 *172:10 *225:8 0.000111302
38 *172:10 *228:29 6.00824e-05
39 *172:10 *476:57 7.28526e-05
40 *172:10 *478:53 0.000216392
41 *172:10 *484:10 0
42 *172:21 *173:18 0.000319888
43 *172:21 *255:27 5.72903e-05
44 *172:21 *484:8 0
45 *172:21 *484:10 0
46 *172:27 *174:10 0.000191166
47 *172:27 *255:35 4.18957e-05
48 *172:27 *303:16 0
49 *172:38 *173:18 3.70363e-05
50 *172:38 *255:35 0.000435849
51 *172:48 *1472:B2 1.90121e-05
52 *172:48 *361:36 8.33273e-05
53 *172:48 *482:44 6.81189e-07
54 *172:48 *482:50 0.000216721
55 *172:48 *482:91 8.79039e-05
56 *172:68 *1444:B1 9.89453e-05
57 *172:68 *173:162 0
58 *172:68 *175:8 0.000140958
59 *172:68 *232:10 0
60 *172:68 *482:50 0.000109223
61 *172:68 *482:52 6.352e-05
62 *172:68 *492:42 0.00014936
63 *172:68 *492:44 0.000111599
64 *172:87 *263:92 5.46603e-06
65 *172:95 *263:92 0.000238287
66 *172:95 *266:28 0
67 *172:95 *480:41 1.14452e-05
68 *172:95 *480:94 0.000178517
69 *172:95 *481:47 1.99391e-05
70 *1440:A *172:68 0
71 *1441:B *172:48 0.000222796
72 *1441:B *172:68 0.000151907
73 *3:23 *172:10 8.43717e-05
74 *3:23 *172:21 0.000118807
75 *148:118 *1505:A1 3.22051e-05
76 *150:48 *172:10 7.57281e-06
77 *151:26 *172:10 0.000132285
78 *152:8 *172:10 0.000171368
79 *154:19 *172:95 1.01436e-05
80 *155:18 *172:95 0.000186025
81 *155:26 *172:95 0.000189035
82 *167:10 *172:68 0.000347238
83 *170:99 *172:95 0.000127427
*RES
1 *1445:Y *172:6 38 
2 *172:6 *172:10 30.9914 
3 *172:10 *1497:B1 23 
4 *172:6 *172:21 27.5114 
5 *172:21 *172:27 32.61 
6 *172:27 *1472:A2 23 
7 *172:21 *172:38 21.3593 
8 *172:38 *172:48 23.5757 
9 *172:48 *1475:C 23 
10 *172:48 *1467:A1 29.9186 
11 *172:38 *172:68 15.9914 
12 *172:68 *1505:A1 42.8264 
13 *172:68 *172:87 15.4971 
14 *172:87 *172:95 41.165 
15 *172:95 *1462:A1 23 
16 *172:87 *1504:A3 27.9093 
17 *172:21 *1446:A 23 
*END

*D_NET *173 0.0297676
*CONN
*I *1468:A3 I *D sky130_fd_sc_hd__a31o_1
*I *1448:A1 I *D sky130_fd_sc_hd__a21o_1
*I *1503:A1 I *D sky130_fd_sc_hd__a21oi_2
*I *1609:A2 I *D sky130_fd_sc_hd__a31o_1
*I *1549:A2 I *D sky130_fd_sc_hd__a31o_1
*I *1559:A1 I *D sky130_fd_sc_hd__a22o_1
*I *1574:A1 I *D sky130_fd_sc_hd__a22o_1
*I *1528:A I *D sky130_fd_sc_hd__nand2_2
*I *1620:A2 I *D sky130_fd_sc_hd__a32o_1
*I *1625:A2 I *D sky130_fd_sc_hd__a32o_1
*I *1446:X O *D sky130_fd_sc_hd__clkbuf_4
*CAP
1 *1468:A3 0.000201218
2 *1448:A1 8.10162e-05
3 *1503:A1 0
4 *1609:A2 0
5 *1549:A2 0
6 *1559:A1 0
7 *1574:A1 0
8 *1528:A 0
9 *1620:A2 8.19726e-05
10 *1625:A2 0
11 *1446:X 0
12 *173:174 0.00033548
13 *173:162 0.00105092
14 *173:158 0.00117257
15 *173:152 0.000975684
16 *173:143 0.000311594
17 *173:125 0.00105536
18 *173:107 0.00105536
19 *173:105 0.00132883
20 *173:91 0.00188836
21 *173:83 0.00125293
22 *173:75 0.00149083
23 *173:68 2.93416e-05
24 *173:46 0.000724186
25 *173:30 0.001882
26 *173:20 0.00226247
27 *173:18 0.00157407
28 *173:4 0.000504257
29 *1448:A1 *1448:A2 4.36547e-05
30 *1448:A1 *1448:B1 4.00259e-06
31 *1448:A1 *229:16 0.000188927
32 *1468:A3 *176:16 6.15931e-05
33 *1468:A3 *193:61 0
34 *1468:A3 *482:135 5.77158e-05
35 *1620:A2 *334:29 4.81153e-05
36 *173:18 *238:10 0
37 *173:18 *255:27 0.000501772
38 *173:18 *255:35 5.50106e-05
39 *173:18 *484:8 0.000136486
40 *173:20 *361:42 0.000860933
41 *173:30 *1620:A3 6.72084e-05
42 *173:30 *209:8 2.56377e-05
43 *173:30 *227:10 0.000159968
44 *173:30 *254:63 0.000469553
45 *173:30 *329:10 0.000171906
46 *173:30 *361:42 0.000235687
47 *173:30 *383:44 0
48 *173:46 *1620:A3 4.33668e-05
49 *173:46 *1625:A3 0.000196713
50 *173:46 *1645:B2 0.00016844
51 *173:46 *254:48 0.000451121
52 *173:46 *335:16 0.000163361
53 *173:46 *348:10 0.000109377
54 *173:46 *383:44 0
55 *173:46 *461:27 0.000165593
56 *173:46 *467:31 6.99358e-05
57 *173:68 *255:10 8.9458e-05
58 *173:75 *255:35 4.75206e-05
59 *173:83 *1469:A 0.000135143
60 *173:83 *198:8 4.334e-05
61 *173:83 *252:8 6.07611e-06
62 *173:83 *256:21 0
63 *173:83 *256:38 0.000401148
64 *173:83 *266:119 0.000198564
65 *173:83 *266:155 0.000127015
66 *173:83 *303:16 0.000206594
67 *173:83 *390:10 0.000406893
68 *173:83 *473:25 0.000185755
69 *173:83 *483:61 0.000212901
70 *173:91 *1525:A2 0.000102953
71 *173:105 *1525:A2 0.00013169
72 *173:105 *1557:A1 1.53678e-05
73 *173:105 *1557:A2 0.000138905
74 *173:105 *243:10 5.56279e-05
75 *173:105 *246:26 0.000123934
76 *173:105 *246:33 0.000102093
77 *173:105 *281:8 0.000112294
78 *173:105 *389:157 0
79 *173:125 *1559:B1 6.11077e-05
80 *173:125 *200:69 2.92911e-06
81 *173:125 *254:99 3.04865e-05
82 *173:125 *254:111 3.36312e-06
83 *173:125 *278:42 0
84 *173:125 *296:10 4.57742e-05
85 *173:125 *389:157 8.40156e-05
86 *173:125 *462:42 8.47896e-05
87 *173:143 *1525:A1 0.000138768
88 *173:143 *251:16 2.95125e-05
89 *173:143 *254:111 2.33476e-05
90 *173:143 *460:10 0
91 *173:152 *255:35 0.000207612
92 *173:158 *176:16 0.000192087
93 *173:158 *193:61 0
94 *173:158 *255:43 0
95 *173:162 *1504:A1 2.39018e-05
96 *173:162 *1507:B 0
97 *173:162 *181:53 4.2812e-06
98 *173:162 *228:39 3.04012e-05
99 *173:162 *232:10 0.000360228
100 *173:162 *255:43 0
101 *173:162 *322:10 0
102 *173:162 *480:75 1.14452e-05
103 *173:162 *480:88 0.000155059
104 *173:174 *1503:B1 0.000144501
105 *173:174 *178:10 0.000157926
106 *173:174 *178:12 0.000114074
107 *173:174 *178:33 1.47563e-05
108 *173:174 *179:26 0
109 *173:174 *185:18 0.000177928
110 *173:174 *230:6 0.000136592
111 *173:174 *324:8 2.26489e-05
112 *173:174 *469:29 0.000214852
113 *1557:B1 *173:105 6.34577e-05
114 *148:118 *173:174 1.24376e-05
115 *153:39 *173:68 8.9458e-05
116 *165:8 *173:125 9.92279e-05
117 *165:10 *173:105 0.000115915
118 *172:21 *173:18 0.000319888
119 *172:38 *173:18 3.70363e-05
120 *172:68 *173:162 0
*RES
1 *1446:X *173:4 23 
2 *173:4 *173:18 41.6414 
3 *173:18 *173:20 17.2964 
4 *173:20 *173:30 37.1436 
5 *173:30 *173:46 30.6186 
6 *173:46 *1625:A2 23 
7 *173:30 *1620:A2 39.595 
8 *173:20 *173:68 31.2014 
9 *173:68 *1528:A 23 
10 *173:4 *173:75 1.57429 
11 *173:75 *173:83 38.8007 
12 *173:83 *173:91 19.7125 
13 *173:91 *173:105 35.5796 
14 *173:105 *173:107 15 
15 *173:107 *173:125 46.9029 
16 *173:125 *1574:A1 23 
17 *173:107 *1559:A1 23 
18 *173:91 *173:143 35.1061 
19 *173:143 *1549:A2 23 
20 *173:75 *173:152 21.815 
21 *173:152 *173:158 7.60214 
22 *173:158 *173:162 28.5264 
23 *173:162 *173:174 38.8657 
24 *173:174 *1609:A2 23 
25 *173:162 *1503:A1 23 
26 *173:158 *1448:A1 40.5479 
27 *173:152 *1468:A3 41.5007 
*END

*D_NET *174 0.00799596
*CONN
*I *1448:A2 I *D sky130_fd_sc_hd__a21o_1
*I *1473:A2 I *D sky130_fd_sc_hd__o21a_2
*I *1472:B1 I *D sky130_fd_sc_hd__o22ai_1
*I *1467:A2 I *D sky130_fd_sc_hd__a21oi_2
*I *1468:A1 I *D sky130_fd_sc_hd__a31o_1
*I *1475:A I *D sky130_fd_sc_hd__and3_1
*I *1447:Y O *D sky130_fd_sc_hd__nand3_4
*CAP
1 *1448:A2 0.000612785
2 *1473:A2 0.000298111
3 *1472:B1 7.71251e-05
4 *1467:A2 0.000114201
5 *1468:A1 3.23376e-05
6 *1475:A 1.65617e-05
7 *1447:Y 8.16808e-05
8 *174:53 0.000399278
9 *174:27 0.000512443
10 *174:14 0.00105388
11 *174:10 0.00101775
12 *174:6 0.00101676
13 *1448:A2 *1448:B1 7.76416e-05
14 *1448:A2 *229:16 2.75186e-05
15 *1467:A2 *193:61 5.58152e-06
16 *1467:A2 *361:22 0.000141217
17 *1467:A2 *472:47 2.26406e-05
18 *1468:A1 *472:47 2.14441e-05
19 *1468:A1 *482:135 1.05441e-05
20 *1472:B1 *199:20 5.81553e-05
21 *1472:B1 *361:36 9.2805e-06
22 *1473:A2 *1470:A1 5.97728e-05
23 *1473:A2 *1472:A1 6.02684e-06
24 *1473:A2 *1474:A2 0
25 *1473:A2 *199:20 6.74483e-05
26 *1473:A2 *303:16 0
27 *174:10 *1472:A1 7.57281e-06
28 *174:10 *266:22 2.82105e-05
29 *174:10 *303:16 0
30 *174:14 *350:20 0.000243871
31 *174:27 *350:20 4.45282e-05
32 *174:27 *361:22 0.000322145
33 *174:53 *1472:A1 5.54345e-06
34 *1441:B *1475:A 6.10551e-06
35 *1447:B *1448:A2 2.4754e-05
36 *1447:B *174:6 5.25848e-05
37 *1447:C *1448:A2 6.28173e-05
38 *1448:A1 *1448:A2 4.36547e-05
39 *1470:B1 *1473:A2 0.000114074
40 *1473:B1 *1473:A2 5.75756e-06
41 *154:34 *1448:A2 3.71369e-05
42 *157:12 *1473:A2 0.000384177
43 *157:12 *174:10 0.000592924
44 *157:12 *174:53 1.23172e-05
45 *157:23 *1473:A2 1.22906e-05
46 *160:8 *1473:A2 5.12025e-05
47 *160:31 *1473:A2 1.29516e-05
48 *172:27 *174:10 0.000191166
*RES
1 *1447:Y *174:6 24.0979 
2 *174:6 *174:10 23.0682 
3 *174:10 *174:14 9.42987 
4 *174:14 *1475:A 46.3211 
5 *174:14 *174:27 0.8288 
6 *174:27 *1468:A1 46.6732 
7 *174:27 *1467:A2 46.6347 
8 *174:10 *174:53 0.321071 
9 *174:53 *1472:B1 39.0979 
10 *174:53 *1473:A2 45.8921 
11 *174:6 *1448:A2 32.8807 
*END

*D_NET *175 0.000380716
*CONN
*I *1449:B1 I *D sky130_fd_sc_hd__o21ai_1
*I *1448:X O *D sky130_fd_sc_hd__a21o_1
*CAP
1 *1449:B1 0
2 *1448:X 4.93995e-05
3 *175:8 4.93995e-05
4 *175:8 *482:50 0.000140958
5 *172:68 *175:8 0.000140958
*RES
1 *1448:X *175:8 39.9057 
2 *175:8 *1449:B1 38 
*END

*D_NET *176 0.00301361
*CONN
*I *1450:B1 I *D sky130_fd_sc_hd__a32oi_1
*I *1449:Y O *D sky130_fd_sc_hd__o21ai_1
*CAP
1 *1450:B1 0
2 *1449:Y 0.000290629
3 *176:16 0.000819529
4 *176:8 0.00111016
5 *176:8 *238:6 6.22284e-05
6 *176:16 *1450:B2 3.35903e-05
7 *176:16 *193:71 0
8 *176:16 *204:8 0
9 *176:16 *350:12 0.000175628
10 *176:16 *361:36 8.21456e-06
11 *176:16 *472:47 0
12 *176:16 *473:38 5.62672e-05
13 *1441:B *176:16 0
14 *1442:A2 *176:16 0.000107631
15 *1449:A1 *176:8 4.9662e-05
16 *1450:A3 *176:16 3.35903e-05
17 *1468:A3 *176:16 6.15931e-05
18 *169:10 *176:16 1.28008e-05
19 *173:158 *176:16 0.000192087
*RES
1 *1449:Y *176:8 41.9564 
2 *176:8 *176:16 29.1582 
3 *176:16 *1450:B1 23 
*END

*D_NET *177 0.00039149
*CONN
*I *1478:A2 I *D sky130_fd_sc_hd__o22a_1
*I *1450:Y O *D sky130_fd_sc_hd__a32oi_1
*CAP
1 *1478:A2 5.13355e-05
2 *1450:Y 5.13355e-05
3 *1478:A2 *1450:B2 5.81185e-05
4 *1478:A2 *1478:B2 0.000189097
5 *1450:A3 *1478:A2 4.16038e-05
*RES
1 *1450:Y *1478:A2 48.0507 
*END

*D_NET *178 0.00548062
*CONN
*I *1459:A2 I *D sky130_fd_sc_hd__o21ai_1
*I *1508:A1 I *D sky130_fd_sc_hd__o211ai_2
*I *1457:A1 I *D sky130_fd_sc_hd__o21ai_1
*I *1451:Y O *D sky130_fd_sc_hd__a21oi_2
*CAP
1 *1459:A2 0
2 *1508:A1 0.000501745
3 *1457:A1 0.000172917
4 *1451:Y 0.000802428
5 *178:33 0.000731803
6 *178:12 0.000454666
7 *178:10 0.000854119
8 *1457:A1 *1457:A2 1.94835e-05
9 *1457:A1 *1609:B1 5.3304e-05
10 *1457:A1 *254:16 0
11 *1457:A1 *470:36 4.5e-05
12 *1457:A1 *470:46 7.51453e-06
13 *1508:A1 *1459:A1 1.89493e-05
14 *1508:A1 *1508:A2 0.000396728
15 *1508:A1 *183:12 2.16583e-05
16 *1508:A1 *470:24 7.47417e-05
17 *178:10 *185:18 0.000173099
18 *178:12 *324:8 4.85126e-05
19 *178:33 *1457:A2 7.55557e-05
20 *178:33 *1508:A2 0
21 *178:33 *317:18 3.95159e-06
22 *178:33 *324:8 3.47781e-05
23 *178:33 *469:29 2.97686e-05
24 *178:33 *470:36 0.000158031
25 *148:16 *178:10 2.18506e-05
26 *148:20 *178:10 6.81213e-05
27 *148:118 *178:10 0.000425141
28 *173:174 *178:10 0.000157926
29 *173:174 *178:12 0.000114074
30 *173:174 *178:33 1.47563e-05
*RES
1 *1451:Y *178:10 49.6 
2 *178:10 *178:12 1.55357 
3 *178:12 *1457:A1 40.9 
4 *178:12 *178:33 19.7021 
5 *178:33 *1508:A1 32.1764 
6 *178:33 *1459:A2 23 
*END

*D_NET *179 0.00506557
*CONN
*I *1459:A1 I *D sky130_fd_sc_hd__o21ai_1
*I *1453:A1 I *D sky130_fd_sc_hd__o21bai_1
*I *1458:B1 I *D sky130_fd_sc_hd__o211a_1
*I *1505:B1 I *D sky130_fd_sc_hd__a21o_1
*I *1461:C I *D sky130_fd_sc_hd__nand3_1
*I *1452:Y O *D sky130_fd_sc_hd__inv_2
*CAP
1 *1459:A1 0.000183128
2 *1453:A1 0.000169818
3 *1458:B1 1.82408e-05
4 *1505:B1 1.95519e-05
5 *1461:C 0
6 *1452:Y 2.52923e-05
7 *179:57 0.000499996
8 *179:40 0.0003241
9 *179:26 0.000416347
10 *179:14 0.000660047
11 *179:6 0.000408249
12 *1453:A1 *1456:A1 5.68958e-05
13 *1453:A1 *1456:B1 4.40621e-05
14 *1459:A1 *1456:B1 3.68452e-05
15 *1459:A1 *180:8 4.2062e-05
16 *1459:A1 *183:12 0.00018613
17 *1505:B1 *232:10 2.31687e-05
18 *179:14 *181:10 3.39192e-05
19 *179:14 *181:53 0.000154421
20 *179:14 *254:16 3.12321e-05
21 *179:14 *492:44 0.000123701
22 *179:14 *492:109 0.000142636
23 *179:26 *232:10 5.67058e-05
24 *179:26 *303:16 0.000293549
25 *179:26 *481:47 0.000299871
26 *179:40 *185:10 1.59071e-05
27 *179:40 *254:16 2.07026e-05
28 *179:40 *492:109 0.000253573
29 *179:57 *1456:A1 0
30 *179:57 *181:38 9.9519e-05
31 *179:57 *185:10 3.24262e-05
32 *1451:A1 *179:26 0.000135037
33 *1458:A2 *1458:B1 1.12349e-05
34 *1458:A2 *179:40 0.000114905
35 *1505:A1 *179:14 4.6318e-06
36 *1508:A1 *1459:A1 1.89493e-05
37 *148:16 *179:26 2.32101e-05
38 *148:20 *179:26 1.40958e-05
39 *148:118 *1505:B1 2.93431e-05
40 *148:118 *179:26 4.2062e-05
41 *173:174 *179:26 0
*RES
1 *1452:Y *179:6 23.4971 
2 *179:6 *179:14 35.2407 
3 *179:14 *179:26 38.9693 
4 *179:26 *1461:C 23 
5 *179:14 *1505:B1 23.6214 
6 *179:6 *179:40 3.95643 
7 *179:40 *1458:B1 23.4971 
8 *179:40 *179:57 32.7964 
9 *179:57 *1453:A1 25.9 
10 *179:57 *1459:A1 27.1429 
*END

*D_NET *180 0.00325185
*CONN
*I *1508:A2 I *D sky130_fd_sc_hd__o211ai_2
*I *1457:A2 I *D sky130_fd_sc_hd__o21ai_1
*I *1453:Y O *D sky130_fd_sc_hd__o21bai_1
*CAP
1 *1508:A2 0.000219954
2 *1457:A2 0.000346939
3 *1453:Y 0.000170137
4 *180:8 0.000737031
5 *1457:A2 *184:8 0
6 *1457:A2 *317:18 0
7 *1457:A2 *469:29 0.000191157
8 *1457:A2 *470:36 7.55769e-05
9 *1457:A2 *470:46 6.17437e-06
10 *1508:A2 *183:12 9.24795e-06
11 *1508:A2 *470:24 4.46462e-05
12 *1508:A2 *470:26 0.000168687
13 *1508:A2 *470:36 5.50049e-05
14 *180:8 *1456:B1 0.00036055
15 *180:8 *181:23 0.00027791
16 *180:8 *181:38 5.50049e-05
17 *1457:A1 *1457:A2 1.94835e-05
18 *1459:A1 *180:8 4.2062e-05
19 *1508:A1 *1508:A2 0.000396728
20 *178:33 *1457:A2 7.55557e-05
21 *178:33 *1508:A2 0
*RES
1 *1453:Y *180:8 43.3857 
2 *180:8 *1457:A2 43.9864 
3 *180:8 *1508:A2 43.9036 
*END

*D_NET *181 0.00607575
*CONN
*I *1504:A1 I *D sky130_fd_sc_hd__a31o_1
*I *1503:A2 I *D sky130_fd_sc_hd__a21oi_2
*I *1505:A2 I *D sky130_fd_sc_hd__a21o_1
*I *1458:C1 I *D sky130_fd_sc_hd__o211a_1
*I *1456:A2 I *D sky130_fd_sc_hd__o21ai_1
*I *1463:B1 I *D sky130_fd_sc_hd__o21ai_1
*I *1454:Y O *D sky130_fd_sc_hd__nand2_2
*CAP
1 *1504:A1 0.000388808
2 *1503:A2 0
3 *1505:A2 2.1982e-05
4 *1458:C1 0
5 *1456:A2 0
6 *1463:B1 0.000244804
7 *1454:Y 0
8 *181:55 2.1982e-05
9 *181:53 0.000824347
10 *181:38 0.000244141
11 *181:23 0.000620105
12 *181:10 0.000832314
13 *181:6 0.000647085
14 *1463:B1 *1455:A1 0.000128723
15 *1463:B1 *492:58 0.000316453
16 *1504:A1 *1504:A2 0.000166871
17 *1504:A1 *232:10 8.29264e-05
18 *1504:A1 *263:92 1.90088e-05
19 *1504:A1 *480:94 0.000135037
20 *1505:A2 *232:10 2.93335e-05
21 *181:10 *1452:A 2.26497e-05
22 *181:10 *481:59 0.000118083
23 *181:10 *492:44 4.95487e-06
24 *181:10 *492:48 8.84525e-06
25 *181:23 *1455:A1 1.64729e-05
26 *181:23 *1456:B1 3.22458e-05
27 *181:38 *1456:A1 0
28 *181:38 *185:10 2.93747e-05
29 *181:38 *325:8 6.17437e-06
30 *181:38 *325:14 0.00021039
31 *181:38 *469:29 1.64634e-05
32 *181:38 *470:46 1.01436e-05
33 *181:38 *492:109 0
34 *181:53 *1452:A 1.05441e-05
35 *181:53 *480:75 1.13328e-05
36 *1455:A2 *181:23 0.000145175
37 *1458:A2 *181:10 0
38 *1458:A2 *181:53 0
39 *1505:A1 *1504:A1 1.63009e-05
40 *1505:A1 *181:53 2.24366e-06
41 *148:118 *1505:A2 2.93335e-05
42 *148:118 *181:53 1.21466e-05
43 *173:162 *1504:A1 2.39018e-05
44 *173:162 *181:53 4.2812e-06
45 *179:14 *181:10 3.39192e-05
46 *179:14 *181:53 0.000154421
47 *179:57 *181:38 9.9519e-05
48 *180:8 *181:23 0.00027791
49 *180:8 *181:38 5.50049e-05
*RES
1 *1454:Y *181:6 38 
2 *181:6 *181:10 18.3143 
3 *181:10 *1463:B1 28.4064 
4 *181:10 *181:23 6.35929 
5 *181:23 *1456:A2 23 
6 *181:23 *181:38 34.9093 
7 *181:38 *1458:C1 23 
8 *181:6 *181:53 5.8 
9 *181:53 *181:55 15 
10 *181:55 *1505:A2 23.6214 
11 *181:55 *1503:A2 23 
12 *181:53 *1504:A1 44.235 
*END

*D_NET *182 0.00176775
*CONN
*I *1456:B1 I *D sky130_fd_sc_hd__o21ai_1
*I *1464:A2 I *D sky130_fd_sc_hd__a22oi_1
*I *1455:X O *D sky130_fd_sc_hd__o21a_1
*CAP
1 *1456:B1 0.000341853
2 *1464:A2 8.21178e-05
3 *1455:X 0
4 *182:4 0.000423971
5 *1456:B1 *1453:B1_N 0.000185368
6 *1456:B1 *1455:A1 4.04303e-05
7 *1456:B1 *1456:A1 0.000102389
8 *1464:A2 *1455:A1 6.17437e-06
9 *1464:A2 *1464:B1 4.94886e-06
10 *1464:A2 *492:58 5.27835e-05
11 *1453:A1 *1456:B1 4.40621e-05
12 *1455:A2 *1456:B1 5.40087e-05
13 *1459:A1 *1456:B1 3.68452e-05
14 *180:8 *1456:B1 0.00036055
15 *181:23 *1456:B1 3.22458e-05
*RES
1 *1455:X *182:4 23 
2 *182:4 *1464:A2 24.5691 
3 *182:4 *1456:B1 32.2386 
*END

*D_NET *183 0.00169702
*CONN
*I *1457:B1 I *D sky130_fd_sc_hd__o21ai_1
*I *1508:C1 I *D sky130_fd_sc_hd__o211ai_2
*I *1456:Y O *D sky130_fd_sc_hd__o21ai_1
*CAP
1 *1457:B1 0
2 *1508:C1 0
3 *1456:Y 0.000294316
4 *183:27 0.000192008
5 *183:12 0.000486324
6 *183:12 *186:6 5.50106e-05
7 *183:12 *470:24 1.37232e-05
8 *183:12 *470:26 2.18506e-05
9 *183:12 *470:36 2.64616e-05
10 *183:27 *184:8 6.17437e-06
11 *183:27 *186:6 2.18409e-05
12 *183:27 *186:12 0.000167443
13 *183:27 *187:19 1.01436e-05
14 *183:27 *192:8 2.13834e-05
15 *183:27 *317:18 0.000106599
16 *183:27 *470:26 5.67058e-05
17 *1459:A1 *183:12 0.00018613
18 *1508:A1 *183:12 2.16583e-05
19 *1508:A2 *183:12 9.24795e-06
*RES
1 *1456:Y *183:12 28.0957 
2 *183:12 *1508:C1 23 
3 *183:12 *183:27 34.205 
4 *183:27 *1457:B1 23 
*END

*D_NET *184 0.00118877
*CONN
*I *1509:A I *D sky130_fd_sc_hd__nand2_1
*I *1466:A2 I *D sky130_fd_sc_hd__o21ai_2
*I *1457:Y O *D sky130_fd_sc_hd__o21ai_1
*CAP
1 *1509:A 0
2 *1466:A2 0
3 *1457:Y 0.000127347
4 *184:21 0.000115835
5 *184:8 0.000243182
6 *184:8 *1466:B1 0.000137651
7 *184:8 *471:37 4.00259e-06
8 *184:21 *1466:B1 4.79008e-05
9 *184:21 *193:10 0.000171906
10 *184:21 *235:8 1.22906e-05
11 *184:21 *471:31 1.01436e-05
12 *184:21 *471:37 5.56279e-05
13 *184:21 *471:45 0.000223043
14 *184:21 *471:69 3.36638e-05
15 *1457:A2 *184:8 0
16 *183:27 *184:8 6.17437e-06
*RES
1 *1457:Y *184:8 25.5479 
2 *184:8 *1466:A2 23 
3 *184:8 *184:21 34.4121 
4 *184:21 *1509:A 23 
*END

*D_NET *185 0.00409364
*CONN
*I *1606:B1 I *D sky130_fd_sc_hd__o22a_1
*I *1465:A1 I *D sky130_fd_sc_hd__o22ai_1
*I *1458:X O *D sky130_fd_sc_hd__o211a_1
*CAP
1 *1606:B1 0
2 *1465:A1 0
3 *1458:X 0.000194151
4 *185:30 0.000434981
5 *185:18 0.000634555
6 *185:10 0.000393726
7 *185:10 *254:16 0.00035857
8 *185:10 *470:46 0.000133316
9 *185:10 *480:75 0
10 *185:18 *1606:A2 8.32009e-05
11 *185:18 *230:6 0.000279461
12 *185:30 *1606:A1 0
13 *185:30 *1606:A2 0.000145055
14 *185:30 *186:12 6.78567e-05
15 *185:30 *186:25 0.000215782
16 *185:30 *187:19 7.76364e-06
17 *185:30 *192:8 3.3746e-05
18 *185:30 *230:6 9.45591e-05
19 *185:30 *235:8 0.000404056
20 *185:30 *317:18 0
21 *185:30 *471:31 0
22 *1458:A2 *185:10 0.000184125
23 *173:174 *185:18 0.000177928
24 *178:10 *185:18 0.000173099
25 *179:40 *185:10 1.59071e-05
26 *179:57 *185:10 3.24262e-05
27 *181:38 *185:10 2.93747e-05
*RES
1 *1458:X *185:10 43.8621 
2 *185:10 *185:18 20.9036 
3 *185:18 *185:30 41.2893 
4 *185:30 *1465:A1 23 
5 *185:18 *1606:B1 23 
*END

*D_NET *186 0.00198046
*CONN
*I *1465:A2 I *D sky130_fd_sc_hd__o22ai_1
*I *1606:B2 I *D sky130_fd_sc_hd__o22a_1
*I *1459:Y O *D sky130_fd_sc_hd__o21ai_1
*CAP
1 *1465:A2 0
2 *1606:B2 0
3 *1459:Y 0.000119675
4 *186:25 0.000187123
5 *186:12 0.000199382
6 *186:6 0.00050618
7 *186:6 *470:26 1.40958e-05
8 *186:12 *192:8 8.62876e-05
9 *186:12 *235:8 0
10 *186:12 *317:18 6.53712e-05
11 *186:25 *192:8 0.000212621
12 *186:25 *470:24 5.3304e-05
13 *186:25 *470:26 8.48502e-06
14 *183:12 *186:6 5.50106e-05
15 *183:27 *186:6 2.18409e-05
16 *183:27 *186:12 0.000167443
17 *185:30 *186:12 6.78567e-05
18 *185:30 *186:25 0.000215782
*RES
1 *1459:Y *186:6 24.5743 
2 *186:6 *186:12 35.075 
3 *186:12 *1606:B2 23 
4 *186:6 *186:25 34.06 
5 *186:25 *1465:A2 23 
*END

*D_NET *187 0.000902185
*CONN
*I *1508:B1 I *D sky130_fd_sc_hd__o211ai_2
*I *1465:B1 I *D sky130_fd_sc_hd__o22ai_1
*I *1460:Y O *D sky130_fd_sc_hd__inv_2
*CAP
1 *1508:B1 0
2 *1465:B1 2.86067e-05
3 *1460:Y 0.000136735
4 *187:19 0.000102355
5 *187:6 0.000267697
6 *1465:B1 *191:16 5.67058e-05
7 *187:6 *1460:A 3.22051e-05
8 *187:6 *191:16 4.34745e-05
9 *187:19 *192:8 0.000162422
10 *187:19 *317:18 5.40762e-05
11 *183:27 *187:19 1.01436e-05
12 *185:30 *187:19 7.76364e-06
*RES
1 *1460:Y *187:6 25.5271 
2 *187:6 *1465:B1 23.6214 
3 *187:6 *187:19 32.61 
4 *187:19 *1508:B1 23 
*END

*D_NET *188 0.000276483
*CONN
*I *1464:A1 I *D sky130_fd_sc_hd__a22oi_1
*I *1461:Y O *D sky130_fd_sc_hd__nand3_1
*CAP
1 *1464:A1 0
2 *1461:Y 6.89547e-05
3 *188:8 6.89547e-05
4 *188:8 *259:125 0.000107909
5 *188:8 *492:48 3.06653e-05
*RES
1 *1461:Y *188:8 39.5536 
2 *188:8 *1464:A1 38 
*END

*D_NET *189 0.000830881
*CONN
*I *1464:B1 I *D sky130_fd_sc_hd__a22oi_1
*I *1462:Y O *D sky130_fd_sc_hd__a21oi_1
*CAP
1 *1464:B1 0.000229281
2 *1462:Y 7.91922e-05
3 *189:10 0.000308474
4 *1464:B1 *1464:B2 5.67058e-05
5 *1464:B1 *492:58 6.33294e-05
6 *189:10 *1462:B1 1.51028e-05
7 *189:10 *266:28 2.79004e-05
8 *189:10 *481:59 6.12496e-06
9 *1464:A2 *1464:B1 4.94886e-06
10 *170:31 *1464:B1 7.53384e-06
11 *170:50 *1464:B1 3.22879e-05
*RES
1 *1462:Y *189:10 39.3775 
2 *189:10 *1464:B1 41.5007 
*END

*D_NET *190 0.000126903
*CONN
*I *1464:B2 I *D sky130_fd_sc_hd__a22oi_1
*I *1463:Y O *D sky130_fd_sc_hd__o21ai_1
*CAP
1 *1464:B2 6.74574e-06
2 *1463:Y 6.74574e-06
3 *1464:B2 *492:58 5.67058e-05
4 *1464:B1 *1464:B2 5.67058e-05
*RES
1 *1463:Y *1464:B2 46.6214 
*END

*D_NET *191 0.00238172
*CONN
*I *1465:B2 I *D sky130_fd_sc_hd__o22ai_1
*I *1464:Y O *D sky130_fd_sc_hd__a22oi_1
*CAP
1 *1465:B2 0
2 *1464:Y 6.55011e-05
3 *191:16 0.00101822
4 *191:8 0.00108372
5 *191:8 *266:28 0
6 *191:8 *303:16 0.000114092
7 *1465:B1 *191:16 5.67058e-05
8 *187:6 *191:16 4.34745e-05
*RES
1 *1464:Y *191:8 39.5536 
2 *191:8 *191:16 31.9857 
3 *191:16 *1465:B2 23 
*END

*D_NET *192 0.00160372
*CONN
*I *1466:B1 I *D sky130_fd_sc_hd__o21ai_2
*I *1465:Y O *D sky130_fd_sc_hd__o22ai_1
*CAP
1 *1466:B1 0.000279538
2 *1465:Y 0.000164266
3 *192:8 0.000443805
4 *1466:B1 *471:37 1.40958e-05
5 *183:27 *192:8 2.13834e-05
6 *184:8 *1466:B1 0.000137651
7 *184:21 *1466:B1 4.79008e-05
8 *185:30 *192:8 3.3746e-05
9 *186:12 *192:8 8.62876e-05
10 *186:25 *192:8 0.000212621
11 *187:19 *192:8 0.000162422
*RES
1 *1465:Y *192:8 42.0186 
2 *192:8 *1466:B1 41.9771 
*END

*D_NET *193 0.00912115
*CONN
*I *1478:B1 I *D sky130_fd_sc_hd__o22a_1
*I *1590:A2 I *D sky130_fd_sc_hd__a21o_1
*I *1598:A3 I *D sky130_fd_sc_hd__a31o_1
*I *1597:A2 I *D sky130_fd_sc_hd__a21oi_1
*I *1466:Y O *D sky130_fd_sc_hd__o21ai_2
*CAP
1 *1478:B1 0
2 *1590:A2 0
3 *1598:A3 3.21736e-05
4 *1597:A2 8.28516e-05
5 *1466:Y 0.000317674
6 *193:71 0.000279244
7 *193:61 0.00146251
8 *193:44 0.00138688
9 *193:29 0.000478654
10 *193:16 0.000729544
11 *193:10 0.000721502
12 *1597:A2 *259:102 9.90628e-05
13 *1597:A2 *307:21 5.56356e-05
14 *1598:A3 *1598:A1 2.64616e-05
15 *1598:A3 *1598:A2 2.64616e-05
16 *193:10 *1604:B1 7.56293e-06
17 *193:10 *230:23 0.000156153
18 *193:10 *235:8 4.88351e-05
19 *193:10 *235:25 0.000104503
20 *193:10 *259:102 1.05441e-05
21 *193:10 *385:102 0
22 *193:10 *471:69 0.00012887
23 *193:16 *231:43 3.9023e-05
24 *193:16 *235:25 3.61511e-05
25 *193:16 *259:94 1.97329e-05
26 *193:16 *259:102 0.00025813
27 *193:16 *263:100 0
28 *193:16 *385:102 0
29 *193:29 *259:102 2.18409e-05
30 *193:29 *263:140 0
31 *193:29 *307:21 0
32 *193:29 *385:102 0.000244517
33 *193:44 *1599:B1 4.90891e-05
34 *193:44 *255:52 0.000224605
35 *193:44 *385:102 0.000188926
36 *193:61 *1477:C1 6.37309e-05
37 *193:61 *1477:D1 2.07242e-05
38 *193:61 *194:12 8.62783e-05
39 *193:61 *195:10 8.4047e-05
40 *193:61 *195:16 5.3304e-05
41 *193:61 *201:6 0.000170821
42 *193:61 *206:8 0.000121454
43 *193:61 *255:52 0.000178414
44 *193:61 *308:18 9.58714e-05
45 *193:61 *308:26 9.84851e-05
46 *193:61 *309:10 3.22879e-05
47 *193:61 *472:47 0
48 *193:61 *482:135 0
49 *193:71 *266:119 1.7387e-05
50 *193:71 *350:12 0
51 *193:71 *473:52 2.81928e-05
52 *193:71 *479:22 0.000267956
53 *193:71 *482:104 3.23373e-05
54 *1441:B *193:71 6.3303e-05
55 *1450:A3 *193:71 0.000103949
56 *1467:A2 *193:61 5.58152e-06
57 *1468:A3 *193:61 0
58 *168:10 *193:71 0.000187986
59 *173:158 *193:61 0
60 *176:16 *193:71 0
61 *184:21 *193:10 0.000171906
*RES
1 *1466:Y *193:10 46.5136 
2 *193:10 *193:16 23.8657 
3 *193:16 *1597:A2 25.0507 
4 *193:16 *193:29 19.8886 
5 *193:29 *1598:A3 38.6214 
6 *193:29 *193:44 20.1371 
7 *193:44 *1590:A2 23 
8 *193:44 *193:61 49.3264 
9 *193:61 *193:71 37.25 
10 *193:71 *1478:B1 23 
*END

*D_NET *194 0.00208397
*CONN
*I *1589:A1 I *D sky130_fd_sc_hd__o21ai_1
*I *1479:A1 I *D sky130_fd_sc_hd__o2111a_1
*I *1476:A1 I *D sky130_fd_sc_hd__o21ai_2
*I *1477:A1 I *D sky130_fd_sc_hd__o2111ai_1
*I *1467:Y O *D sky130_fd_sc_hd__a21oi_2
*CAP
1 *1589:A1 0
2 *1479:A1 0
3 *1476:A1 0
4 *1477:A1 0
5 *1467:Y 0
6 *194:40 0.000138556
7 *194:30 0.000192226
8 *194:23 0.00025653
9 *194:12 0.000111679
10 *194:4 0.000314539
11 *194:12 *195:10 2.49836e-05
12 *194:12 *202:10 2.32004e-05
13 *194:12 *206:8 8.62876e-05
14 *194:12 *263:106 1.69668e-05
15 *194:23 *202:10 0.000178517
16 *194:23 *203:10 4.04303e-05
17 *194:30 *1476:B1 5.3304e-05
18 *194:30 *1589:B1 9.8203e-05
19 *194:30 *203:10 5.67058e-05
20 *194:40 *1479:A2 5.90675e-06
21 *194:40 *1479:C1 0
22 *194:40 *195:31 0.000190753
23 *194:40 *259:94 0.000191166
24 *194:40 *472:54 1.37349e-05
25 *1467:A1 *194:23 4.00259e-06
26 *193:61 *194:12 8.62783e-05
*RES
1 *1467:Y *194:4 23 
2 *194:4 *194:12 32.5271 
3 *194:12 *1477:A1 23 
4 *194:4 *194:23 3.99786 
5 *194:23 *1476:A1 23 
6 *194:23 *194:30 1.57429 
7 *194:30 *194:40 33.7286 
8 *194:40 *1479:A1 23 
9 *194:30 *1589:A1 23 
*END

*D_NET *195 0.00293065
*CONN
*I *1477:A2 I *D sky130_fd_sc_hd__o2111ai_1
*I *1589:A2 I *D sky130_fd_sc_hd__o21ai_1
*I *1479:A2 I *D sky130_fd_sc_hd__o2111a_1
*I *1468:X O *D sky130_fd_sc_hd__a31o_1
*CAP
1 *1477:A2 0
2 *1589:A2 0
3 *1479:A2 1.96641e-05
4 *1468:X 0.000393373
5 *195:31 0.000178775
6 *195:16 0.000511791
7 *195:12 0.000313352
8 *195:10 0.000393373
9 *1479:A2 *1479:C1 4.00259e-06
10 *195:10 *472:47 3.98859e-05
11 *195:16 *1477:C1 1.04441e-07
12 *195:16 *1477:D1 9.155e-05
13 *195:16 *1479:B1 5.67058e-05
14 *195:16 *1479:C1 0
15 *195:16 *201:10 8.06804e-06
16 *195:16 *201:23 7.44161e-06
17 *195:31 *1599:B1 1.37246e-05
18 *195:31 *472:54 0.000139657
19 *1467:A1 *195:10 0.000400187
20 *193:61 *195:10 8.4047e-05
21 *193:61 *195:16 5.3304e-05
22 *194:12 *195:10 2.49836e-05
23 *194:40 *1479:A2 5.90675e-06
24 *194:40 *195:31 0.000190753
*RES
1 *1468:X *195:10 44.3386 
2 *195:10 *195:12 15 
3 *195:12 *195:16 5.40643 
4 *195:16 *1479:A2 23.4971 
5 *195:16 *195:31 33.8321 
6 *195:31 *1589:A2 23 
7 *195:12 *1477:A2 23 
*END

*D_NET *196 0.00125807
*CONN
*I *1470:A1 I *D sky130_fd_sc_hd__o211ai_4
*I *1472:A1 I *D sky130_fd_sc_hd__o22ai_1
*I *1469:Y O *D sky130_fd_sc_hd__inv_2
*CAP
1 *1470:A1 0.000163186
2 *1472:A1 0.000102513
3 *1469:Y 4.32933e-05
4 *196:8 0.000308993
5 *1470:A1 *199:20 0.000128931
6 *1470:A1 *303:16 0.000340925
7 *1472:A1 *199:20 1.14452e-05
8 *1472:A1 *303:16 4.75766e-05
9 *196:8 *1469:A 3.22879e-05
10 *1473:A2 *1470:A1 5.97728e-05
11 *1473:A2 *1472:A1 6.02684e-06
12 *174:10 *1472:A1 7.57281e-06
13 *174:53 *1472:A1 5.54345e-06
*RES
1 *1469:Y *196:8 38.6214 
2 *196:8 *1472:A1 39.6157 
3 *196:8 *1470:A1 42.7229 
*END

*D_NET *197 0.00407082
*CONN
*I *1591:A2 I *D sky130_fd_sc_hd__a41oi_1
*I *1592:A1 I *D sky130_fd_sc_hd__a22o_1
*I *1479:B1 I *D sky130_fd_sc_hd__o2111a_1
*I *1477:B1 I *D sky130_fd_sc_hd__o2111ai_1
*I *1470:Y O *D sky130_fd_sc_hd__o211ai_4
*CAP
1 *1591:A2 0
2 *1592:A1 0.000167684
3 *1479:B1 0.000117584
4 *1477:B1 0
5 *1470:Y 0.000263643
6 *197:23 0.000285268
7 *197:21 0.000235952
8 *197:12 0.000149423
9 *197:6 0.000649018
10 *1479:B1 *1592:A2 3.70094e-05
11 *1479:B1 *201:23 0.0001441
12 *1479:B1 *259:94 0.000123439
13 *1479:B1 *309:10 4.32372e-05
14 *1592:A1 *1592:A2 0.000168651
15 *1592:A1 *259:94 7.75819e-05
16 *197:6 *400:34 0.000620648
17 *197:6 *400:36 0.000137368
18 *197:6 *473:32 0.000270667
19 *197:12 *263:106 0
20 *197:12 *472:47 8.93663e-05
21 *197:21 *1591:A1 0.000135037
22 *197:21 *1591:B1 5.3304e-05
23 *197:21 *400:34 0.000198628
24 *1442:A1 *197:6 4.65096e-05
25 *195:16 *1479:B1 5.67058e-05
*RES
1 *1470:Y *197:6 31.2443 
2 *197:6 *197:12 32.61 
3 *197:12 *1477:B1 23 
4 *197:6 *197:21 5.40643 
5 *197:21 *197:23 15 
6 *197:23 *1479:B1 41.9357 
7 *197:23 *1592:A1 41.045 
8 *197:21 *1591:A2 23 
*END

*D_NET *198 0.00120454
*CONN
*I *1472:B2 I *D sky130_fd_sc_hd__o22ai_1
*I *1471:X O *D sky130_fd_sc_hd__or2b_1
*CAP
1 *1472:B2 0.000166326
2 *1471:X 4.1855e-05
3 *198:8 0.000208181
4 *1472:B2 *1469:A 0.00015995
5 *1472:B2 *199:20 7.97646e-05
6 *1472:B2 *361:36 0.000397596
7 *198:8 *266:119 8.85189e-05
8 *172:48 *1472:B2 1.90121e-05
9 *173:83 *198:8 4.334e-05
*RES
1 *1471:X *198:8 39.2014 
2 *198:8 *1472:B2 43.6343 
*END

*D_NET *199 0.00080089
*CONN
*I *1474:A1 I *D sky130_fd_sc_hd__o21bai_2
*I *1472:Y O *D sky130_fd_sc_hd__o22ai_1
*CAP
1 *1474:A1 0
2 *1472:Y 0.000206457
3 *199:20 0.000206457
4 *199:20 *1469:A 0
5 *199:20 *361:36 4.22296e-05
6 *1470:A1 *199:20 0.000128931
7 *1472:A1 *199:20 1.14452e-05
8 *1472:B1 *199:20 5.81553e-05
9 *1472:B2 *199:20 7.97646e-05
10 *1473:A2 *199:20 6.74483e-05
*RES
1 *1472:Y *199:20 43.3754 
2 *199:20 *1474:A1 38 
*END

*D_NET *200 0.0129425
*CONN
*I *1521:C1 I *D sky130_fd_sc_hd__a311o_1
*I *1520:A2 I *D sky130_fd_sc_hd__o21ai_1
*I *1562:B I *D sky130_fd_sc_hd__or3b_1
*I *1577:B I *D sky130_fd_sc_hd__or3b_1
*I *1546:B1 I *D sky130_fd_sc_hd__a31o_1
*I *1474:A2 I *D sky130_fd_sc_hd__o21bai_2
*I *1473:X O *D sky130_fd_sc_hd__o21a_2
*CAP
1 *1521:C1 0.0001673
2 *1520:A2 0
3 *1562:B 0
4 *1577:B 3.93988e-05
5 *1546:B1 0
6 *1474:A2 0.000493876
7 *1473:X 3.44519e-05
8 *200:82 0.000556414
9 *200:69 0.000513115
10 *200:54 0.00105109
11 *200:50 0.00163377
12 *200:44 0.000817403
13 *200:37 0.000256971
14 *200:25 0.000578058
15 *200:8 0.000778092
16 *1474:A2 *1474:B1_N 1.09903e-05
17 *1474:A2 *400:55 0
18 *1474:A2 *460:10 2.62545e-05
19 *1474:A2 *473:8 2.30292e-05
20 *1474:A2 *473:25 6.16045e-05
21 *1521:C1 *1521:A1 1.32314e-05
22 *1521:C1 *1521:B1 9.95589e-06
23 *1521:C1 *1525:A2 2.02872e-05
24 *1521:C1 *246:33 2.18409e-05
25 *1521:C1 *460:10 7.20518e-05
26 *1521:C1 *483:111 6.47492e-05
27 *200:8 *205:8 9.79925e-05
28 *200:8 *303:115 5.14826e-05
29 *200:25 *460:10 0.000221617
30 *200:37 *1546:A1 1.86564e-05
31 *200:37 *385:92 0.000223088
32 *200:37 *483:53 0.000136486
33 *200:44 *460:10 6.4393e-05
34 *200:50 *1517:A1 4.67488e-05
35 *200:50 *1517:B1 2.64616e-05
36 *200:50 *244:10 9.67842e-05
37 *200:54 *1517:B1 3.22763e-05
38 *200:54 *279:49 9.64943e-05
39 *200:54 *386:64 8.73233e-05
40 *200:54 *389:10 0.000392616
41 *200:69 *1516:D 0.000238881
42 *200:69 *242:10 0.000156482
43 *200:69 *254:88 1.67942e-05
44 *200:69 *259:47 2.26497e-05
45 *200:82 *243:10 6.86685e-05
46 *200:82 *268:8 1.7316e-05
47 *200:82 *384:122 0.000249628
48 *200:82 *389:157 0
49 *1432:B *200:37 9.26156e-06
50 *1473:A2 *1474:A2 0
51 *1520:A1 *200:82 1.94812e-05
52 *1521:A2 *1521:C1 0.000191628
53 *1521:A2 *200:44 6.25829e-05
54 *1525:B2 *200:37 0.000138718
55 *1557:B1 *200:82 0.000166522
56 *1577:A *1577:B 0.000114083
57 *1577:A *200:69 0.0001129
58 *150:102 *1474:A2 0.000425916
59 *150:102 *200:25 0.00019904
60 *150:113 *200:25 0.000293311
61 *150:113 *200:44 7.48331e-05
62 *150:117 *200:50 2.64616e-05
63 *151:89 *200:50 7.15126e-05
64 *153:39 *1577:B 0.000116314
65 *153:39 *200:69 0.000183885
66 *157:12 *1474:A2 0
67 *159:41 *200:50 5.95773e-05
68 *159:41 *200:54 0.000197558
69 *159:58 *200:69 0.000725007
70 *165:29 *200:82 0.000144231
71 *173:125 *200:69 2.92911e-06
*RES
1 *1473:X *200:8 39.0979 
2 *200:8 *1474:A2 47.3007 
3 *200:8 *200:25 6.83571 
4 *200:25 *200:37 49.6504 
5 *200:37 *1546:B1 23 
6 *200:25 *200:44 1.90571 
7 *200:44 *200:50 25.6471 
8 *200:50 *200:54 25.6264 
9 *200:54 *1577:B 39.5536 
10 *200:54 *200:69 27.1593 
11 *200:69 *1562:B 23 
12 *200:50 *200:82 39.86 
13 *200:82 *1520:A2 23 
14 *200:44 *1521:C1 42.35 
*END

*D_NET *201 0.00485793
*CONN
*I *1477:C1 I *D sky130_fd_sc_hd__o2111ai_1
*I *1592:A2 I *D sky130_fd_sc_hd__a22o_1
*I *1591:A3 I *D sky130_fd_sc_hd__a41oi_1
*I *1479:C1 I *D sky130_fd_sc_hd__o2111a_1
*I *1474:Y O *D sky130_fd_sc_hd__o21bai_2
*CAP
1 *1477:C1 5.8531e-05
2 *1592:A2 0.000153745
3 *1591:A3 0
4 *1479:C1 5.49935e-05
5 *1474:Y 0.000522097
6 *201:23 0.000257591
7 *201:10 0.000587049
8 *201:6 0.00100884
9 *1477:C1 *1477:D1 4.15098e-05
10 *1592:A2 *1592:B1 0.000178368
11 *1592:A2 *1592:B2 2.58557e-05
12 *1592:A2 *259:94 6.5117e-06
13 *1592:A2 *472:24 0.000142678
14 *201:6 *1441:C 0.00013359
15 *201:6 *1471:B_N 9.67842e-05
16 *201:6 *473:25 0.000308045
17 *201:6 *482:104 8.71791e-05
18 *201:10 *1477:D1 0.000411118
19 *201:23 *1592:B1 1.14452e-05
20 *201:23 *309:10 0.000138727
21 *1479:A2 *1479:C1 4.00259e-06
22 *1479:B1 *1592:A2 3.70094e-05
23 *1479:B1 *201:23 0.0001441
24 *1592:A1 *1592:A2 0.000168651
25 *168:10 *201:6 2.93431e-05
26 *193:61 *1477:C1 6.37309e-05
27 *193:61 *201:6 0.000170821
28 *194:40 *1479:C1 0
29 *195:16 *1477:C1 1.04441e-07
30 *195:16 *1479:C1 0
31 *195:16 *201:10 8.06804e-06
32 *195:16 *201:23 7.44161e-06
*RES
1 *1474:Y *201:6 35.0557 
2 *201:6 *201:10 6.71143 
3 *201:10 *1479:C1 24.2014 
4 *201:10 *201:23 17.5271 
5 *201:23 *1591:A3 38 
6 *201:23 *1592:A2 42.5364 
7 *201:6 *1477:C1 25.2164 
*END

*D_NET *202 0.00163162
*CONN
*I *1476:A2 I *D sky130_fd_sc_hd__o21ai_2
*I *1475:X O *D sky130_fd_sc_hd__and3_1
*CAP
1 *1476:A2 0
2 *1475:X 0.000286716
3 *202:10 0.000286716
4 *202:10 *1467:B1 7.11824e-06
5 *202:10 *203:10 5.3304e-05
6 *202:10 *472:47 5.84239e-05
7 *202:10 *482:38 4.5051e-05
8 *202:10 *482:42 0.000359261
9 *202:10 *482:44 0.000182081
10 *1467:A1 *202:10 0.000151234
11 *194:12 *202:10 2.32004e-05
12 *194:23 *202:10 0.000178517
*RES
1 *1475:X *202:10 32.2386 
2 *202:10 *1476:A2 23 
*END

*D_NET *203 0.00414122
*CONN
*I *1589:B1 I *D sky130_fd_sc_hd__o21ai_1
*I *1592:B2 I *D sky130_fd_sc_hd__a22o_1
*I *1591:A1 I *D sky130_fd_sc_hd__a41oi_1
*I *1477:D1 I *D sky130_fd_sc_hd__o2111ai_1
*I *1479:D1 I *D sky130_fd_sc_hd__o2111a_1
*I *1476:Y O *D sky130_fd_sc_hd__o21ai_2
*CAP
1 *1589:B1 6.22141e-05
2 *1592:B2 9.19282e-05
3 *1591:A1 0.00019724
4 *1477:D1 0.00014731
5 *1479:D1 0
6 *1476:Y 0
7 *203:32 0.000387648
8 *203:19 0.000260984
9 *203:10 0.000144273
10 *203:4 0.000191293
11 *1589:B1 *1476:B1 4.94227e-05
12 *1589:B1 *482:38 0.000214984
13 *1591:A1 *310:10 1.24376e-05
14 *1591:A1 *400:34 2.98648e-05
15 *1592:B2 *1592:B1 0.000120267
16 *1592:B2 *263:114 8.0213e-05
17 *1592:B2 *472:24 5.58003e-05
18 *203:10 *263:106 0.000216494
19 *203:10 *309:10 0.000214337
20 *203:10 *482:38 0.000184527
21 *203:19 *263:106 5.33597e-05
22 *203:19 *309:10 6.48049e-05
23 *203:32 *1592:B1 4.92689e-05
24 *203:32 *263:106 0.000150977
25 *203:32 *263:114 2.60152e-05
26 *203:32 *309:10 0.000161121
27 *1477:C1 *1477:D1 4.15098e-05
28 *1592:A2 *1592:B2 2.58557e-05
29 *193:61 *1477:D1 2.07242e-05
30 *194:23 *203:10 4.04303e-05
31 *194:30 *1589:B1 9.8203e-05
32 *194:30 *203:10 5.67058e-05
33 *195:16 *1477:D1 9.155e-05
34 *197:21 *1591:A1 0.000135037
35 *201:10 *1477:D1 0.000411118
36 *202:10 *203:10 5.3304e-05
*RES
1 *1476:Y *203:4 23 
2 *203:4 *203:10 20.0129 
3 *203:10 *1479:D1 38 
4 *203:10 *203:19 0.849286 
5 *203:19 *1477:D1 42.93 
6 *203:19 *203:32 2.96214 
7 *203:32 *1591:A1 41.3764 
8 *203:32 *1592:B2 40.8793 
9 *203:4 *1589:B1 25.5271 
*END

*D_NET *204 0.00229945
*CONN
*I *1478:B2 I *D sky130_fd_sc_hd__o22a_1
*I *1477:Y O *D sky130_fd_sc_hd__o2111ai_1
*CAP
1 *1478:B2 0.000475825
2 *1477:Y 0.000278393
3 *204:8 0.000754219
4 *1478:B2 *1450:B2 0.000141311
5 *204:8 *472:47 0.000403567
6 *1442:A2 *204:8 1.59355e-05
7 *1450:A3 *1478:B2 1.79419e-05
8 *1478:A2 *1478:B2 0.000189097
9 *161:135 *204:8 2.3164e-05
10 *176:16 *204:8 0
*RES
1 *1477:Y *204:8 44.1314 
2 *204:8 *1478:B2 45.0636 
*END

*D_NET *205 0.00561926
*CONN
*I *1555:A I *D sky130_fd_sc_hd__nand2_2
*I *1517:A1 I *D sky130_fd_sc_hd__a21oi_1
*I *1564:A1 I *D sky130_fd_sc_hd__a21boi_1
*I *1478:X O *D sky130_fd_sc_hd__o22a_1
*CAP
1 *1555:A 0
2 *1517:A1 0.00022294
3 *1564:A1 0.000320863
4 *1478:X 0.000549636
5 *205:24 0.000646962
6 *205:18 0.000410574
7 *205:8 0.000857051
8 *1517:A1 *1517:A2 0.000246235
9 *1517:A1 *238:19 5.1504e-05
10 *1517:A1 *278:10 0
11 *1564:A1 *1564:A2 0.000172544
12 *1564:A1 *385:92 1.78826e-05
13 *205:8 *1661:A1 0.000395611
14 *205:8 *303:115 0.000166348
15 *205:8 *482:114 0.000179725
16 *205:18 *279:6 4.46854e-05
17 *205:18 *383:171 6.08318e-05
18 *205:24 *238:10 1.13812e-05
19 *205:24 *238:19 0.000131416
20 *205:24 *279:6 0.000102971
21 *151:74 *205:18 0
22 *159:41 *1517:A1 9.84851e-05
23 *160:31 *205:8 0.000181125
24 *161:52 *205:18 0.000127167
25 *161:52 *205:24 2.50118e-05
26 *162:36 *1517:A1 4.9256e-05
27 *162:36 *205:24 0.000160578
28 *163:111 *205:18 0.000243734
29 *200:8 *205:8 9.79925e-05
30 *200:50 *1517:A1 4.67488e-05
*RES
1 *1478:X *205:8 49.5793 
2 *205:8 *205:18 22.4364 
3 *205:18 *205:24 18.0036 
4 *205:24 *1564:A1 42.4329 
5 *205:24 *1517:A1 44.1107 
6 *205:18 *1555:A 23 
*END

*D_NET *206 0.00144604
*CONN
*I *1511:A I *D sky130_fd_sc_hd__nand4_2
*I *1479:X O *D sky130_fd_sc_hd__o2111a_1
*CAP
1 *1511:A 4.33545e-05
2 *1479:X 0.000321437
3 *206:8 0.000364791
4 *1511:A *1511:B 0.000143655
5 *1511:A *263:106 5.67058e-05
6 *206:8 *1511:C 4.6318e-06
7 *206:8 *255:43 5.08899e-05
8 *206:8 *263:106 0.000252835
9 *206:8 *308:26 0
10 *193:61 *206:8 0.000121454
11 *194:12 *206:8 8.62876e-05
*RES
1 *1479:X *206:8 45.54 
2 *206:8 *1511:A 39.5743 
*END

*D_NET *207 0.00478556
*CONN
*I *1482:A I *D sky130_fd_sc_hd__nand3_1
*I *1612:A I *D sky130_fd_sc_hd__and3_1
*I *1480:Y O *D sky130_fd_sc_hd__o21ai_1
*CAP
1 *1482:A 0
2 *1612:A 0.000176584
3 *1480:Y 0.000273207
4 *207:33 0.000834332
5 *207:10 0.00128412
6 *1612:A *1486:A_N 7.84477e-05
7 *1612:A *1487:A 1.1258e-05
8 *1612:A *213:8 1.21972e-05
9 *1612:A *468:53 6.04112e-05
10 *207:10 *263:43 8.57315e-05
11 *207:10 *314:25 0.000191149
12 *207:10 *339:53 1.01436e-05
13 *207:33 *1501:A2 9.0404e-05
14 *207:33 *1613:A 2.00704e-05
15 *207:33 *1613:B 8.48502e-06
16 *207:33 *228:6 5.12055e-06
17 *207:33 *228:14 2.92911e-06
18 *207:33 *228:29 2.40002e-06
19 *207:33 *263:43 6.39199e-05
20 *207:33 *314:25 0.000212121
21 *207:33 *328:12 0.000137533
22 *207:33 *468:36 0.000127283
23 *1480:A2 *207:10 5.67058e-05
24 *148:43 *207:10 4.79641e-05
25 *148:45 *207:10 0.000367864
26 *152:29 *207:10 0.000625172
*RES
1 *1480:Y *207:10 48.8543 
2 *207:10 *1612:A 40.5479 
3 *207:10 *207:33 28.1743 
4 *207:33 *1482:A 23 
*END

*D_NET *208 0.00370088
*CONN
*I *1612:B I *D sky130_fd_sc_hd__and3_1
*I *1482:B I *D sky130_fd_sc_hd__nand3_1
*I *1481:X O *D sky130_fd_sc_hd__a211o_1
*CAP
1 *1612:B 0.000256242
2 *1482:B 0.000482842
3 *1481:X 0.000223886
4 *208:14 0.000926062
5 *208:10 0.000410865
6 *1482:B *227:10 2.2154e-05
7 *1482:B *349:12 0
8 *1482:B *383:44 0
9 *1482:B *481:31 0.000639664
10 *1612:B *222:21 7.34938e-05
11 *1612:B *327:12 0.000120593
12 *208:10 *228:29 0.000146068
13 *208:10 *314:25 2.33476e-05
14 *208:14 *481:31 0.000306661
15 *153:27 *1612:B 6.8999e-05
*RES
1 *1481:X *208:10 42.7539 
2 *208:10 *208:14 8.61413 
3 *208:14 *1482:B 47.9743 
4 *208:14 *1612:B 48.6744 
*END

*D_NET *209 0.0025527
*CONN
*I *1500:B I *D sky130_fd_sc_hd__nand2_1
*I *1487:A I *D sky130_fd_sc_hd__nand2_2
*I *1619:A1 I *D sky130_fd_sc_hd__a221o_1
*I *1482:Y O *D sky130_fd_sc_hd__nand3_1
*CAP
1 *1500:B 0
2 *1487:A 0.000201139
3 *1619:A1 0
4 *1482:Y 7.65466e-05
5 *209:26 0.0002226
6 *209:18 0.000629075
7 *209:14 0.000306002
8 *209:8 0.000177212
9 *1487:A *1487:B 2.64616e-05
10 *1487:A *213:8 3.02603e-05
11 *1487:A *226:26 6.17437e-06
12 *209:8 *227:10 8.78864e-05
13 *209:14 *227:10 5.2711e-05
14 *209:18 *226:26 4.98295e-05
15 *209:18 *227:10 3.27534e-06
16 *209:26 *213:16 0.000360461
17 *209:26 *254:48 0
18 *209:26 *254:63 2.60807e-06
19 *209:26 *333:10 0.000138718
20 *209:26 *334:29 3.5037e-05
21 *209:26 *468:36 0.000109803
22 *1612:A *1487:A 1.1258e-05
23 *173:30 *209:8 2.56377e-05
*RES
1 *1482:Y *209:8 39.9057 
2 *209:8 *209:14 17.0714 
3 *209:14 *209:18 2.9 
4 *209:18 *209:26 35.6964 
5 *209:26 *1619:A1 23 
6 *209:18 *1487:A 25.9 
7 *209:14 *1500:B 23 
*END

*D_NET *210 0.0021034
*CONN
*I *1485:B1 I *D sky130_fd_sc_hd__a211o_1
*I *1496:A2 I *D sky130_fd_sc_hd__a211o_1
*I *1484:B1 I *D sky130_fd_sc_hd__o21ai_1
*I *1483:Y O *D sky130_fd_sc_hd__inv_2
*CAP
1 *1485:B1 0
2 *1496:A2 0.000146487
3 *1484:B1 0.000245891
4 *1483:Y 0.000263927
5 *210:10 0.000392378
6 *210:8 0.000263927
7 *210:8 *1428:B 4.08664e-05
8 *210:8 *478:57 5.3304e-05
9 *210:8 *481:39 7.64059e-06
10 *1485:A2 *1484:B1 5.71002e-06
11 *1485:A2 *210:8 8.67802e-06
12 *150:56 *210:8 8.96199e-05
13 *151:10 *210:8 1.41129e-05
14 *151:26 *210:8 2.95423e-05
15 *151:43 *1484:B1 4.41821e-06
16 *151:43 *1496:A2 8.90195e-05
17 *152:8 *1484:B1 1.05999e-05
18 *166:36 *1484:B1 0.000196233
19 *166:36 *1496:A2 1.13812e-05
20 *166:47 *1496:A2 0.000229669
*RES
1 *1483:Y *210:8 27.4536 
2 *210:8 *210:10 15 
3 *210:10 *1484:B1 42.06 
4 *210:10 *1496:A2 41.3143 
5 *210:8 *1485:B1 23 
*END

*D_NET *211 0.00173234
*CONN
*I *1486:B I *D sky130_fd_sc_hd__nand3b_1
*I *1484:Y O *D sky130_fd_sc_hd__o21ai_1
*CAP
1 *1486:B 9.83477e-05
2 *1484:Y 0.000365873
3 *211:10 0.000464221
4 *1486:B *1486:C 0.000274226
5 *1486:B *213:8 0.000102389
6 *1486:B *481:39 4.6437e-05
7 *211:10 *486:68 0.000163025
8 *1485:A2 *1486:B 1.19088e-06
9 *1485:A2 *211:10 2.81425e-05
10 *148:41 *211:10 7.79323e-05
11 *148:43 *211:10 0.000102944
12 *148:45 *211:10 7.61229e-06
*RES
1 *1484:Y *211:10 43.7379 
2 *211:10 *1486:B 41.5007 
*END

*D_NET *212 0.000753293
*CONN
*I *1486:C I *D sky130_fd_sc_hd__nand3b_1
*I *1485:X O *D sky130_fd_sc_hd__a211o_1
*CAP
1 *1486:C 0.000207747
2 *1485:X 0.000207747
3 *1486:C *1486:A_N 3.86731e-05
4 *1486:C *213:8 2.48995e-05
5 *1486:B *1486:C 0.000274226
*RES
1 *1485:X *1486:C 49.9771 
*END

*D_NET *213 0.00298222
*CONN
*I *1487:B I *D sky130_fd_sc_hd__nand2_2
*I *1619:A2 I *D sky130_fd_sc_hd__a221o_1
*I *1486:Y O *D sky130_fd_sc_hd__nand3b_1
*CAP
1 *1487:B 2.19043e-05
2 *1619:A2 0
3 *1486:Y 0.000443224
4 *213:16 0.000213292
5 *213:8 0.00067842
6 *213:8 *1486:A_N 0.000215073
7 *213:8 *214:8 2.64616e-05
8 *213:8 *226:26 3.86731e-05
9 *213:8 *327:12 0.000308635
10 *213:8 *468:53 2.99898e-05
11 *213:16 *1495:A2 1.99109e-05
12 *213:16 *1618:B1 0.000186429
13 *213:16 *1619:B1 3.28708e-05
14 *213:16 *468:36 2.46399e-05
15 *1486:B *213:8 0.000102389
16 *1486:C *213:8 2.48995e-05
17 *1487:A *1487:B 2.64616e-05
18 *1487:A *213:8 3.02603e-05
19 *1612:A *213:8 1.21972e-05
20 *149:43 *213:16 0.000186033
21 *209:26 *213:16 0.000360461
*RES
1 *1486:Y *213:8 33.6471 
2 *213:8 *213:16 36.1625 
3 *213:16 *1619:A2 23 
4 *213:8 *1487:B 23.6214 
*END

*D_NET *214 0.00233114
*CONN
*I *1613:A I *D sky130_fd_sc_hd__nor2_1
*I *1501:A1 I *D sky130_fd_sc_hd__o21bai_4
*I *1618:B1 I *D sky130_fd_sc_hd__o22a_1
*I *1487:Y O *D sky130_fd_sc_hd__nand2_2
*CAP
1 *1613:A 0.000142609
2 *1501:A1 0
3 *1618:B1 0.000117049
4 *1487:Y 5.43738e-05
5 *214:23 0.000289211
6 *214:8 0.000318024
7 *1613:A *1501:A2 2.80342e-05
8 *1613:A *1613:B 0.0001784
9 *1613:A *228:29 0.000312459
10 *1618:B1 *226:26 3.37228e-05
11 *1618:B1 *468:36 4.16878e-06
12 *214:23 *1501:A2 9.41704e-05
13 *214:23 *226:26 6.76295e-05
14 *214:23 *228:29 4.05745e-05
15 *149:43 *1618:B1 0.000262934
16 *149:43 *214:23 0.000154819
17 *207:33 *1613:A 2.00704e-05
18 *213:8 *214:8 2.64616e-05
19 *213:16 *1618:B1 0.000186429
*RES
1 *1487:Y *214:8 38.6214 
2 *214:8 *1618:B1 41.6664 
3 *214:8 *214:23 18.3557 
4 *214:23 *1501:A1 23 
5 *214:23 *1613:A 27.4743 
*END

*D_NET *215 0.00139754
*CONN
*I *1492:A I *D sky130_fd_sc_hd__nand3_1
*I *1494:B1 I *D sky130_fd_sc_hd__a21oi_1
*I *1488:Y O *D sky130_fd_sc_hd__inv_2
*CAP
1 *1492:A 0
2 *1494:B1 0
3 *1488:Y 6.19696e-05
4 *215:21 0.000298953
5 *215:6 0.000360923
6 *215:6 *221:10 4.04598e-06
7 *215:21 *1494:A2 5.50049e-05
8 *215:21 *216:14 0.000375076
9 *215:21 *218:8 0.000226234
10 *215:21 *221:10 9.88574e-06
11 *215:21 *314:25 5.44889e-06
*RES
1 *1488:Y *215:6 24.0979 
2 *215:6 *1494:B1 23 
3 *215:6 *215:21 36.8357 
4 *215:21 *1492:A 23 
*END

*D_NET *216 0.00268528
*CONN
*I *1492:B I *D sky130_fd_sc_hd__nand3_1
*I *1494:A1 I *D sky130_fd_sc_hd__a21oi_1
*I *1489:Y O *D sky130_fd_sc_hd__o211ai_1
*CAP
1 *1492:B 0
2 *1494:A1 0
3 *1489:Y 0.00026924
4 *216:14 0.000293862
5 *216:6 0.000563101
6 *216:6 *1489:A1 0.00012239
7 *216:6 *217:10 0.000577179
8 *216:6 *217:51 0.000226295
9 *216:6 *476:25 5.56279e-05
10 *216:6 *480:33 0.000153531
11 *216:14 *314:25 4.89774e-05
12 *215:21 *216:14 0.000375076
*RES
1 *1489:Y *216:6 32.6736 
2 *216:6 *216:14 34.5571 
3 *216:14 *1494:A1 23 
4 *216:6 *1492:B 23 
*END

*D_NET *217 0.00480248
*CONN
*I *1491:A1 I *D sky130_fd_sc_hd__o21bai_1
*I *1623:A2 I *D sky130_fd_sc_hd__o32a_1
*I *1493:B I *D sky130_fd_sc_hd__or2_1
*I *1624:A2 I *D sky130_fd_sc_hd__o21ai_1
*I *1490:Y O *D sky130_fd_sc_hd__inv_2
*CAP
1 *1491:A1 0
2 *1623:A2 2.00578e-05
3 *1493:B 1.71566e-05
4 *1624:A2 0
5 *1490:Y 0
6 *217:51 0.000210315
7 *217:24 0.000157749
8 *217:16 0.000406336
9 *217:10 0.00101878
10 *217:4 0.000977608
11 *1493:B *1493:A 5.90675e-06
12 *1623:A2 *1493:A 0
13 *217:10 *1622:A_N 5.50049e-05
14 *217:10 *218:23 9.41704e-05
15 *217:10 *219:6 1.46286e-05
16 *217:10 *335:6 0.000122825
17 *217:10 *335:16 3.22879e-05
18 *217:10 *480:33 2.38387e-06
19 *217:16 *1493:A 1.14154e-05
20 *217:16 *1623:A1 0.000197901
21 *217:16 *335:16 2.4754e-05
22 *217:16 *336:10 9.58714e-05
23 *217:16 *461:33 4.67488e-05
24 *217:24 *383:44 0
25 *217:24 *461:14 3.70094e-05
26 *217:24 *461:27 0.000101708
27 *217:24 *461:33 6.17437e-06
28 *217:24 *480:33 8.06804e-06
29 *217:51 *477:23 0.000138718
30 *217:51 *478:23 0.000138718
31 *152:39 *217:10 5.67058e-05
32 *216:6 *217:10 0.000577179
33 *216:6 *217:51 0.000226295
*RES
1 *1490:Y *217:4 23 
2 *217:4 *217:10 13.1743 
3 *217:10 *217:16 4.59857 
4 *217:16 *217:24 32.5271 
5 *217:24 *1624:A2 23 
6 *217:16 *1493:B 23.4971 
7 *217:10 *1623:A2 23.4971 
8 *217:4 *217:51 34.4329 
9 *217:51 *1491:A1 23 
*END

*D_NET *218 0.00212513
*CONN
*I *1492:C I *D sky130_fd_sc_hd__nand3_1
*I *1494:A2 I *D sky130_fd_sc_hd__a21oi_1
*I *1491:Y O *D sky130_fd_sc_hd__o21bai_1
*CAP
1 *1492:C 0
2 *1494:A2 2.32824e-05
3 *1491:Y 0.000504323
4 *218:23 0.000148394
5 *218:8 0.000675999
6 *218:8 *477:23 3.71369e-05
7 *218:23 *219:6 2.02872e-05
8 *218:23 *221:10 5.93381e-05
9 *218:23 *221:23 2.76611e-06
10 *218:23 *335:6 5.3304e-05
11 *218:23 *339:53 0.000185755
12 *1491:A2 *218:8 3.91386e-05
13 *215:21 *1494:A2 5.50049e-05
14 *215:21 *218:8 0.000226234
15 *217:10 *218:23 9.41704e-05
*RES
1 *1491:Y *218:8 33.0464 
2 *218:8 *1494:A2 23.6214 
3 *218:8 *218:23 33.7079 
4 *218:23 *1492:C 23 
*END

*D_NET *219 0.00259809
*CONN
*I *1622:B I *D sky130_fd_sc_hd__and2b_1
*I *1619:B1 I *D sky130_fd_sc_hd__a221o_1
*I *1495:A1 I *D sky130_fd_sc_hd__a21oi_2
*I *1492:Y O *D sky130_fd_sc_hd__nand3_1
*CAP
1 *1622:B 0
2 *1619:B1 0.00016358
3 *1495:A1 0
4 *1492:Y 5.32395e-05
5 *219:16 0.0004256
6 *219:6 0.00031526
7 *1619:B1 *1495:A2 0.000127466
8 *1619:B1 *1495:B1 0
9 *1619:B1 *1619:B2 7.7908e-06
10 *1619:B1 *1619:C1 0.000302791
11 *219:6 *335:6 4.17736e-05
12 *219:6 *480:33 0.000137368
13 *219:16 *1619:C1 2.02872e-05
14 *219:16 *221:23 0.000363946
15 *219:16 *222:8 6.1062e-05
16 *219:16 *335:6 0.000184527
17 *219:16 *480:33 0.000181125
18 *152:39 *219:16 0.000144485
19 *213:16 *1619:B1 3.28708e-05
20 *217:10 *219:6 1.46286e-05
21 *218:23 *219:6 2.02872e-05
*RES
1 *1492:Y *219:6 24.5743 
2 *219:6 *219:16 37.7471 
3 *219:16 *1495:A1 23 
4 *219:16 *1619:B1 27.4743 
5 *219:6 *1622:B 23 
*END

*D_NET *220 0.00239926
*CONN
*I *1495:A2 I *D sky130_fd_sc_hd__a21oi_2
*I *1619:B2 I *D sky130_fd_sc_hd__a221o_1
*I *1645:A2_N I *D sky130_fd_sc_hd__a2bb2o_1
*I *1493:X O *D sky130_fd_sc_hd__or2_1
*CAP
1 *1495:A2 0.000317933
2 *1619:B2 2.83241e-05
3 *1645:A2_N 0.000318285
4 *1493:X 0.000134678
5 *220:10 0.000664542
6 *220:8 0.000134678
7 *1495:A2 *1619:C1 8.76961e-06
8 *1619:B2 *1619:C1 1.6079e-05
9 *1645:A2_N *1619:C1 3.44504e-05
10 *220:8 *1625:A3 8.62783e-05
11 *220:8 *254:48 0.00021039
12 *220:8 *334:29 0.000289685
13 *1619:B1 *1495:A2 0.000127466
14 *1619:B1 *1619:B2 7.7908e-06
15 *213:16 *1495:A2 1.99109e-05
*RES
1 *1493:X *220:8 42.0186 
2 *220:8 *220:10 15 
3 *220:10 *1645:A2_N 27.1429 
4 *220:10 *1619:B2 24.0461 
5 *220:10 *1495:A2 28.1371 
*END

*D_NET *221 0.003613
*CONN
*I *1495:B1 I *D sky130_fd_sc_hd__a21oi_2
*I *1619:C1 I *D sky130_fd_sc_hd__a221o_1
*I *1622:A_N I *D sky130_fd_sc_hd__and2b_1
*I *1494:Y O *D sky130_fd_sc_hd__a21oi_1
*CAP
1 *1495:B1 7.69196e-05
2 *1619:C1 0.000368202
3 *1622:A_N 1.50079e-05
4 *1494:Y 0.00025194
5 *221:23 0.000684248
6 *221:10 0.000506074
7 *1619:C1 *333:10 0.000136738
8 *1622:A_N *335:6 5.50049e-05
9 *221:10 *334:29 0
10 *221:10 *336:10 0
11 *221:10 *339:53 0
12 *221:23 *222:8 2.16507e-05
13 *221:23 *339:53 3.69473e-05
14 *1495:A2 *1619:C1 8.76961e-06
15 *1537:A *1495:B1 9.41704e-05
16 *1537:A *1619:C1 4.17736e-05
17 *1619:B1 *1495:B1 0
18 *1619:B1 *1619:C1 0.000302791
19 *1619:B2 *1619:C1 1.6079e-05
20 *1645:A2_N *1619:C1 3.44504e-05
21 *148:59 *1619:C1 0.000136743
22 *152:39 *221:10 2.76611e-06
23 *152:39 *221:23 1.17152e-05
24 *153:27 *221:23 0.000295737
25 *215:6 *221:10 4.04598e-06
26 *215:21 *221:10 9.88574e-06
27 *217:10 *1622:A_N 5.50049e-05
28 *218:23 *221:10 5.93381e-05
29 *218:23 *221:23 2.76611e-06
30 *219:16 *1619:C1 2.02872e-05
31 *219:16 *221:23 0.000363946
*RES
1 *1494:Y *221:10 42.2879 
2 *221:10 *1622:A_N 38.6214 
3 *221:10 *221:23 21.4836 
4 *221:23 *1619:C1 31.1355 
5 *221:23 *1495:B1 24.595 
*END

*D_NET *222 0.00303632
*CONN
*I *1613:B I *D sky130_fd_sc_hd__nor2_1
*I *1501:A2 I *D sky130_fd_sc_hd__o21bai_4
*I *1618:B2 I *D sky130_fd_sc_hd__o22a_1
*I *1495:Y O *D sky130_fd_sc_hd__a21oi_2
*CAP
1 *1613:B 7.64229e-05
2 *1501:A2 0.000114017
3 *1618:B2 3.42282e-05
4 *1495:Y 0.000169984
5 *222:21 0.000465186
6 *222:8 0.000478959
7 *1501:A2 *228:6 3.7681e-05
8 *1501:A2 *228:29 1.47709e-05
9 *1501:A2 *328:12 1.09903e-05
10 *1613:B *328:12 7.2298e-05
11 *1618:B2 *339:53 5.12254e-05
12 *1618:B2 *468:53 9.79925e-05
13 *222:21 *327:12 0.000156947
14 *222:21 *328:12 3.18198e-05
15 *1612:B *222:21 7.34938e-05
16 *1613:A *1501:A2 2.80342e-05
17 *1613:A *1613:B 0.0001784
18 *148:51 *222:8 0.000161032
19 *148:51 *222:21 1.0092e-05
20 *149:43 *222:8 3.51865e-05
21 *149:43 *222:21 0.000112587
22 *152:39 *222:8 0.000206046
23 *153:27 *222:8 3.95159e-06
24 *153:27 *222:21 0.000139201
25 *207:33 *1501:A2 9.0404e-05
26 *207:33 *1613:B 8.48502e-06
27 *214:23 *1501:A2 9.41704e-05
28 *219:16 *222:8 6.1062e-05
29 *221:23 *222:8 2.16507e-05
*RES
1 *1495:Y *222:8 42.0186 
2 *222:8 *1618:B2 39.0979 
3 *222:8 *222:21 20.7793 
4 *222:21 *1501:A2 26.045 
5 *222:21 *1613:B 25.0507 
*END

*D_NET *223 0.0035451
*CONN
*I *1502:A2 I *D sky130_fd_sc_hd__a21o_2
*I *1499:A I *D sky130_fd_sc_hd__nand3_1
*I *1611:A2 I *D sky130_fd_sc_hd__a21oi_1
*I *1496:X O *D sky130_fd_sc_hd__a211o_1
*CAP
1 *1502:A2 0
2 *1499:A 0
3 *1611:A2 6.75951e-05
4 *1496:X 0.000285798
5 *223:47 8.01963e-05
6 *223:41 0.000577748
7 *223:18 0.000626448
8 *223:14 0.00010032
9 *223:10 0.000324817
10 *1611:A2 *1502:B1 3.72054e-06
11 *1611:A2 *1611:B1 2.19004e-05
12 *1611:A2 *229:10 6.20525e-05
13 *1611:A2 *229:16 4.07841e-05
14 *1611:A2 *469:60 1.89846e-05
15 *223:10 *486:68 0.000236928
16 *223:14 *225:14 0.000140927
17 *223:14 *229:16 0.000127052
18 *223:18 *1502:B1 5.12055e-06
19 *223:18 *225:14 5.79559e-05
20 *223:18 *229:16 0.000232478
21 *223:18 *469:47 4.93812e-05
22 *223:18 *469:60 2.16844e-05
23 *223:41 *229:10 7.57281e-06
24 *223:41 *229:16 1.73677e-05
25 *223:41 *314:25 0
26 *223:41 *486:68 0
27 *223:47 *314:25 0.000158999
28 *223:47 *469:70 0.000109458
29 *223:47 *469:89 2.44132e-05
30 *1481:A1 *223:10 1.41129e-05
31 *1481:A2 *223:10 0.000113141
32 *151:26 *223:10 1.24376e-05
33 *151:43 *223:10 5.71002e-06
34 *172:10 *223:10 0
*RES
1 *1496:X *223:10 42.8886 
2 *223:10 *223:14 16.5743 
3 *223:14 *223:18 3.02429 
4 *223:18 *1611:A2 25.4754 
5 *223:18 *223:41 35.7379 
6 *223:41 *223:47 32.2579 
7 *223:47 *1499:A 23 
8 *223:14 *1502:A2 23 
*END

*D_NET *224 0.0021296
*CONN
*I *1498:A I *D sky130_fd_sc_hd__nand2_1
*I *1497:Y O *D sky130_fd_sc_hd__o31ai_1
*CAP
1 *1498:A 0
2 *1497:Y 0.000571942
3 *224:10 0.000571942
4 *224:10 *1481:B1 0.000156962
5 *224:10 *254:31 2.49531e-05
6 *224:10 *469:47 6.69509e-05
7 *224:10 *478:53 0.000214292
8 *224:10 *484:10 0
9 *148:100 *224:10 0.000335145
10 *172:10 *224:10 0.000187416
*RES
1 *1497:Y *224:10 49.8071 
2 *224:10 *1498:A 38 
*END

*D_NET *225 0.00420488
*CONN
*I *1502:A1 I *D sky130_fd_sc_hd__a21o_2
*I *1611:A1 I *D sky130_fd_sc_hd__a21oi_1
*I *1499:C I *D sky130_fd_sc_hd__nand3_1
*I *1498:Y O *D sky130_fd_sc_hd__nand2_1
*CAP
1 *1502:A1 0
2 *1611:A1 1.59933e-05
3 *1499:C 0.000402526
4 *1498:Y 6.70717e-05
5 *225:26 0.000866594
6 *225:14 0.000618895
7 *225:8 0.000237892
8 *1499:C *226:14 0.000125873
9 *1499:C *229:64 0.0002022
10 *1499:C *327:12 2.47015e-05
11 *1499:C *328:12 2.05503e-05
12 *1499:C *481:31 0.000192271
13 *1611:A1 *229:16 4.77164e-06
14 *1611:A1 *314:25 9.86551e-06
15 *225:8 *469:47 2.98857e-05
16 *225:14 *229:16 0.000263371
17 *225:14 *469:47 0.000661317
18 *225:26 *229:64 5.23204e-05
19 *225:26 *481:31 9.47248e-05
20 *225:26 *486:68 3.87221e-06
21 *172:10 *225:8 0.000111302
22 *223:14 *225:14 0.000140927
23 *223:18 *225:14 5.79559e-05
*RES
1 *1498:Y *225:8 39.5536 
2 *225:8 *225:14 22.7886 
3 *225:14 *225:26 24.3029 
4 *225:26 *1499:C 49.2213 
5 *225:26 *1611:A1 46.3211 
6 *225:14 *1502:A1 23 
*END

*D_NET *226 0.00223398
*CONN
*I *1614:B2 I *D sky130_fd_sc_hd__a2bb2o_1
*I *1500:A I *D sky130_fd_sc_hd__nand2_1
*I *1499:Y O *D sky130_fd_sc_hd__nand3_1
*CAP
1 *1614:B2 0
2 *1500:A 0
3 *1499:Y 0.000174354
4 *226:26 0.000446099
5 *226:14 0.000620452
6 *226:14 *1611:B1 0
7 *226:14 *1614:A2_N 9.67842e-05
8 *226:14 *326:10 7.11138e-05
9 *226:26 *1614:A1_N 2.18506e-05
10 *226:26 *1614:A2_N 0.000140308
11 *226:26 *228:14 5.47473e-05
12 *226:26 *254:63 8.72054e-06
13 *226:26 *468:36 0.000217536
14 *1487:A *226:26 6.17437e-06
15 *1499:C *226:14 0.000125873
16 *1618:B1 *226:26 3.37228e-05
17 *149:43 *226:26 6.01171e-05
18 *209:18 *226:26 4.98295e-05
19 *213:8 *226:26 3.86731e-05
20 *214:23 *226:26 6.76295e-05
*RES
1 *1499:Y *226:14 27.1636 
2 *226:14 *226:26 38.7207 
3 *226:26 *1500:A 23 
4 *226:14 *1614:B2 23 
*END

*D_NET *227 0.000743742
*CONN
*I *1501:B1_N I *D sky130_fd_sc_hd__o21bai_4
*I *1500:Y O *D sky130_fd_sc_hd__nand2_1
*CAP
1 *1501:B1_N 0
2 *1500:Y 0.000208874
3 *227:10 0.000208874
4 *1482:B *227:10 2.2154e-05
5 *173:30 *227:10 0.000159968
6 *209:8 *227:10 8.78864e-05
7 *209:14 *227:10 5.2711e-05
8 *209:18 *227:10 3.27534e-06
*RES
1 *1500:Y *227:10 41.8321 
2 *227:10 *1501:B1_N 38 
*END

*D_NET *228 0.0140596
*CONN
*I *1607:A1 I *D sky130_fd_sc_hd__a21o_1
*I *1511:B I *D sky130_fd_sc_hd__nand4_2
*I *1588:A I *D sky130_fd_sc_hd__nand3_1
*I *1601:C1 I *D sky130_fd_sc_hd__o2111ai_2
*I *1615:B1 I *D sky130_fd_sc_hd__o221ai_1
*I *1501:Y O *D sky130_fd_sc_hd__o21bai_4
*CAP
1 *1607:A1 0.000158701
2 *1511:B 0.000231831
3 *1588:A 2.55474e-05
4 *1601:C1 2.35836e-05
5 *1615:B1 0
6 *1501:Y 4.1591e-05
7 *228:56 0.000416939
8 *228:43 0.00034943
9 *228:39 0.000660871
10 *228:29 0.00290412
11 *228:14 0.000263734
12 *228:6 0.00287356
13 *1511:B *1511:C 0
14 *1511:B *1511:D 7.44316e-05
15 *1511:B *1599:A1_N 9.72057e-06
16 *1511:B *263:100 0.000260395
17 *1511:B *317:10 0.000239352
18 *1588:A *1588:B 6.68617e-05
19 *1588:A *1597:A1 0
20 *1607:A1 *323:12 0.000186032
21 *228:6 *468:36 3.7681e-05
22 *228:14 *254:63 0.000384489
23 *228:14 *326:10 8.62876e-05
24 *228:14 *468:36 5.82853e-05
25 *228:29 *1481:B1 0.000288344
26 *228:29 *1496:B1 1.24376e-05
27 *228:39 *492:29 0.000155365
28 *228:43 *1601:D1 5.58003e-05
29 *228:43 *318:12 1.21972e-05
30 *228:43 *323:12 0.000115517
31 *228:43 *492:29 0.000442254
32 *228:56 *263:100 0.000352785
33 *228:56 *317:10 0.000350544
34 *228:56 *492:29 9.66585e-05
35 *1481:A1 *228:29 2.57772e-05
36 *1481:A2 *228:29 9.87385e-06
37 *1501:A2 *228:6 3.7681e-05
38 *1501:A2 *228:29 1.47709e-05
39 *1511:A *1511:B 0.000143655
40 *1613:A *228:29 0.000312459
41 *3:23 *228:29 0
42 *149:43 *228:14 3.07161e-05
43 *150:48 *228:29 0.000583892
44 *150:95 *228:29 0.00111042
45 *151:26 *228:29 0.000121714
46 *166:47 *228:29 9.09657e-05
47 *172:10 *228:29 6.00824e-05
48 *173:162 *228:39 3.04012e-05
49 *207:33 *228:6 5.12055e-06
50 *207:33 *228:14 2.92911e-06
51 *207:33 *228:29 2.40002e-06
52 *208:10 *228:29 0.000146068
53 *214:23 *228:29 4.05745e-05
54 *226:26 *228:14 5.47473e-05
*RES
1 *1501:Y *228:6 24.2014 
2 *228:6 *228:14 36.1729 
3 *228:14 *1615:B1 23 
4 *228:6 *228:29 46.1529 
5 *228:29 *228:39 28.0025 
6 *228:39 *228:43 5.63429 
7 *228:43 *1601:C1 23.4971 
8 *228:43 *228:56 20.8207 
9 *228:56 *1588:A 38.8493 
10 *228:56 *1511:B 44.3593 
11 *228:39 *1607:A1 25.5271 
*END

*D_NET *229 0.0101925
*CONN
*I *1614:B1 I *D sky130_fd_sc_hd__a2bb2o_1
*I *1588:B I *D sky130_fd_sc_hd__nand3_1
*I *1511:C I *D sky130_fd_sc_hd__nand4_2
*I *1601:D1 I *D sky130_fd_sc_hd__o2111ai_2
*I *1607:A2 I *D sky130_fd_sc_hd__a21o_1
*I *1502:X O *D sky130_fd_sc_hd__a21o_2
*CAP
1 *1614:B1 0
2 *1588:B 0.000199983
3 *1511:C 0.000164354
4 *1601:D1 2.63128e-05
5 *1607:A2 0
6 *1502:X 5.62393e-05
7 *229:64 0.000457241
8 *229:22 0.000178988
9 *229:18 0.000317029
10 *229:16 0.00272079
11 *229:10 0.00303429
12 *1511:C *1511:D 0.000122751
13 *1511:C *237:12 1.83667e-05
14 *1511:C *255:43 0.000293134
15 *1511:C *263:100 0
16 *1511:C *308:26 0
17 *1601:D1 *318:12 6.17437e-06
18 *1601:D1 *323:12 1.3523e-05
19 *229:10 *469:60 9.77405e-05
20 *229:16 *1448:B1 6.82663e-05
21 *229:16 *314:25 0
22 *229:16 *469:47 4.40271e-05
23 *229:16 *486:68 0
24 *229:22 *237:12 0.000176465
25 *229:22 *255:43 0.000375835
26 *229:64 *327:12 1.01436e-05
27 *1447:B *229:16 4.39725e-05
28 *1447:C *229:16 0.000398552
29 *1448:A1 *229:16 0.000188927
30 *1448:A2 *229:16 2.75186e-05
31 *1499:C *229:64 0.0002022
32 *1511:B *1511:C 0
33 *1588:A *1588:B 6.68617e-05
34 *1611:A1 *229:16 4.77164e-06
35 *1611:A2 *229:10 6.20525e-05
36 *1611:A2 *229:16 4.07841e-05
37 *149:43 *229:64 4.09412e-06
38 *153:27 *229:64 1.05658e-05
39 *206:8 *1511:C 4.6318e-06
40 *223:14 *229:16 0.000127052
41 *223:18 *229:16 0.000232478
42 *223:41 *229:10 7.57281e-06
43 *223:41 *229:16 1.73677e-05
44 *225:14 *229:16 0.000263371
45 *225:26 *229:64 5.23204e-05
46 *228:43 *1601:D1 5.58003e-05
*RES
1 *1502:X *229:10 39.4189 
2 *229:10 *229:16 49.3961 
3 *229:16 *229:18 15 
4 *229:18 *229:22 20.075 
5 *229:22 *1607:A2 23 
6 *229:22 *1601:D1 23.6214 
7 *229:18 *1511:C 42.64 
8 *229:16 *1588:B 25.9 
9 *229:10 *229:64 32.3216 
10 *229:64 *1614:B1 23 
*END

*D_NET *230 0.00521877
*CONN
*I *1601:A2 I *D sky130_fd_sc_hd__o2111ai_2
*I *1510:A1 I *D sky130_fd_sc_hd__o2111a_1
*I *1606:A1 I *D sky130_fd_sc_hd__o22a_1
*I *1503:Y O *D sky130_fd_sc_hd__a21oi_2
*CAP
1 *1601:A2 0
2 *1510:A1 7.54631e-05
3 *1606:A1 2.34823e-05
4 *1503:Y 0.000336425
5 *230:44 0.000749834
6 *230:23 0.00119099
7 *230:6 0.0007256
8 *1510:A1 *1604:C1 5.67058e-05
9 *230:6 *1503:B1 5.79559e-05
10 *230:6 *236:10 5.67058e-05
11 *230:6 *322:10 0.000308247
12 *230:23 *236:10 9.8203e-05
13 *230:23 *471:45 5.3304e-05
14 *230:23 *471:69 0.000326983
15 *230:44 *1604:B1 2.93747e-05
16 *230:44 *255:60 0.000141029
17 *230:44 *318:12 0
18 *230:44 *320:10 1.83667e-05
19 *230:44 *385:102 4.6908e-06
20 *230:44 *388:139 0
21 *230:44 *470:24 0
22 *230:44 *471:69 0.000180218
23 *230:44 *492:29 0.000118427
24 *173:174 *230:6 0.000136592
25 *185:18 *230:6 0.000279461
26 *185:30 *1606:A1 0
27 *185:30 *230:6 9.45591e-05
28 *193:10 *230:23 0.000156153
*RES
1 *1503:Y *230:6 31.7207 
2 *230:6 *1606:A1 23.4971 
3 *230:6 *230:23 37.8714 
4 *230:23 *1510:A1 24.595 
5 *230:23 *230:44 41.8486 
6 *230:44 *1601:A2 23 
*END

*D_NET *231 0.00485479
*CONN
*I *1510:A2 I *D sky130_fd_sc_hd__o2111a_1
*I *1601:A1 I *D sky130_fd_sc_hd__o2111ai_2
*I *1606:A2 I *D sky130_fd_sc_hd__o22a_1
*I *1504:X O *D sky130_fd_sc_hd__a31o_1
*CAP
1 *1510:A2 8.79387e-05
2 *1601:A1 0
3 *1606:A2 0.000279065
4 *1504:X 0.000407163
5 *231:43 0.000297702
6 *231:31 0.000728894
7 *231:12 0.00102948
8 *1510:A2 *1510:B1 1.24376e-05
9 *1510:A2 *235:25 2.92911e-06
10 *1606:A2 *317:18 0.000240416
11 *1606:A2 *323:12 2.36844e-05
12 *1606:A2 *324:8 0.000162422
13 *231:12 *1603:A4 4.17736e-05
14 *231:12 *1608:B 0.000137624
15 *231:12 *263:92 0.000371317
16 *231:31 *1510:B1 0.000181131
17 *231:31 *1602:A2 8.48502e-06
18 *231:31 *237:12 0.000137651
19 *231:31 *317:18 0.000136486
20 *231:31 *318:20 0.000114092
21 *231:31 *323:12 3.95159e-06
22 *231:43 *1601:B1 3.53831e-05
23 *231:43 *234:19 4.67277e-06
24 *231:43 *235:25 0.000109161
25 *231:43 *236:25 3.36488e-05
26 *185:18 *1606:A2 8.32009e-05
27 *185:30 *1606:A2 0.000145055
28 *193:16 *231:43 3.9023e-05
*RES
1 *1504:X *231:12 45.3329 
2 *231:12 *1606:A2 44.815 
3 *231:12 *231:31 20.8621 
4 *231:31 *231:43 35.0543 
5 *231:43 *1601:A1 23 
6 *231:31 *1510:A2 24.0979 
*END

*D_NET *232 0.00156988
*CONN
*I *1507:A I *D sky130_fd_sc_hd__nand3_2
*I *1505:X O *D sky130_fd_sc_hd__a21o_1
*CAP
1 *1507:A 0
2 *1505:X 0.000481614
3 *232:10 0.000481614
4 *1504:A1 *232:10 8.29264e-05
5 *1505:A1 *232:10 2.93431e-05
6 *1505:A2 *232:10 2.93335e-05
7 *1505:B1 *232:10 2.31687e-05
8 *148:118 *232:10 2.49459e-05
9 *172:68 *232:10 0
10 *173:162 *232:10 0.000360228
11 *179:26 *232:10 5.67058e-05
*RES
1 *1505:X *232:10 46.555 
2 *232:10 *1507:A 38 
*END

*D_NET *233 0.00178031
*CONN
*I *1507:C I *D sky130_fd_sc_hd__nand3_2
*I *1506:X O *D sky130_fd_sc_hd__a211o_1
*CAP
1 *1507:C 0
2 *1506:X 0.000442085
3 *233:8 0.000442085
4 *233:8 *1507:B 6.01239e-05
5 *233:8 *234:6 0.000119174
6 *233:8 *237:12 0
7 *233:8 *469:37 0.000499866
8 *233:8 *492:126 1.21972e-05
9 *1506:A1 *233:8 5.3304e-05
10 *1506:A2 *233:8 9.67842e-05
11 *148:35 *233:8 5.46873e-05
*RES
1 *1506:X *233:8 34.1236 
2 *233:8 *1507:C 23 
*END

*D_NET *234 0.00380814
*CONN
*I *1601:B1 I *D sky130_fd_sc_hd__o2111ai_2
*I *1510:B1 I *D sky130_fd_sc_hd__o2111a_1
*I *1603:A3 I *D sky130_fd_sc_hd__a41o_1
*I *1602:B1 I *D sky130_fd_sc_hd__a22oi_1
*I *1507:Y O *D sky130_fd_sc_hd__nand3_2
*CAP
1 *1601:B1 6.95772e-05
2 *1510:B1 0.000112146
3 *1603:A3 0.000189531
4 *1602:B1 0
5 *1507:Y 0.000358852
6 *234:19 0.000382795
7 *234:17 0.000356748
8 *234:6 0.000564905
9 *1510:B1 *1602:A1 1.14876e-05
10 *1510:B1 *1602:A2 5.12254e-05
11 *1510:B1 *235:25 9.88574e-06
12 *1601:B1 *263:100 0.000127478
13 *1603:A3 *1603:A2 4.50096e-05
14 *1603:A3 *1603:A4 0.000309908
15 *1603:A3 *1603:B1 0.000141052
16 *1603:A3 *236:25 7.35746e-05
17 *1603:A3 *263:100 0.000161882
18 *234:6 *1507:B 5.65647e-05
19 *234:6 *1602:B2 5.3304e-05
20 *234:6 *237:12 5.37348e-06
21 *234:6 *319:12 5.42593e-05
22 *234:6 *469:37 9.24795e-06
23 *234:17 *1602:A1 0.000183544
24 *234:17 *237:12 9.24795e-06
25 *234:19 *236:25 2.32554e-05
26 *234:19 *263:100 9.44888e-05
27 *1510:A2 *1510:B1 1.24376e-05
28 *231:31 *1510:B1 0.000181131
29 *231:43 *1601:B1 3.53831e-05
30 *231:43 *234:19 4.67277e-06
31 *233:8 *234:6 0.000119174
*RES
1 *1507:Y *234:6 29.3386 
2 *234:6 *1602:B1 23 
3 *234:6 *234:17 18.0243 
4 *234:17 *234:19 1.55357 
5 *234:19 *1603:A3 43.7379 
6 *234:19 *1510:B1 40.9 
7 *234:17 *1601:B1 39.9057 
*END

*D_NET *235 0.00332546
*CONN
*I *1510:C1 I *D sky130_fd_sc_hd__o2111a_1
*I *1602:A1 I *D sky130_fd_sc_hd__a22oi_1
*I *1603:A1 I *D sky130_fd_sc_hd__a41o_1
*I *1508:Y O *D sky130_fd_sc_hd__o211ai_2
*CAP
1 *1510:C1 0
2 *1602:A1 0.000160435
3 *1603:A1 0
4 *1508:Y 0.00040199
5 *235:25 0.000482121
6 *235:8 0.000723676
7 *1602:A1 *1602:A2 0.000208518
8 *1602:A1 *237:12 2.05299e-05
9 *235:8 *236:10 5.31444e-05
10 *235:8 *236:25 1.58805e-05
11 *235:8 *471:31 7.35181e-05
12 *235:8 *471:45 0.000225265
13 *235:25 *236:25 3.75401e-05
14 *1510:A2 *235:25 2.92911e-06
15 *1510:B1 *1602:A1 1.14876e-05
16 *1510:B1 *235:25 9.88574e-06
17 *184:21 *235:8 1.22906e-05
18 *185:30 *235:8 0.000404056
19 *186:12 *235:8 0
20 *193:10 *235:8 4.88351e-05
21 *193:10 *235:25 0.000104503
22 *193:16 *235:25 3.61511e-05
23 *231:43 *235:25 0.000109161
24 *234:17 *1602:A1 0.000183544
*RES
1 *1508:Y *235:8 46.9486 
2 *235:8 *1603:A1 38 
3 *235:8 *235:25 20.8829 
4 *235:25 *1602:A1 27.1221 
5 *235:25 *1510:C1 23 
*END

*D_NET *236 0.00193618
*CONN
*I *1510:D1 I *D sky130_fd_sc_hd__o2111a_1
*I *1602:A2 I *D sky130_fd_sc_hd__a22oi_1
*I *1603:A2 I *D sky130_fd_sc_hd__a41o_1
*I *1509:Y O *D sky130_fd_sc_hd__nand2_1
*CAP
1 *1510:D1 0
2 *1602:A2 7.47101e-05
3 *1603:A2 0.000111895
4 *1509:Y 0.000185413
5 *236:25 0.000265157
6 *236:10 0.000487756
7 *1602:A2 *237:12 4.32869e-05
8 *1603:A2 *1603:B1 5.50106e-05
9 *236:10 *317:18 0
10 *236:25 *263:100 7.76364e-06
11 *236:25 *317:18 0
12 *1510:B1 *1602:A2 5.12254e-05
13 *1602:A1 *1602:A2 0.000208518
14 *1603:A3 *1603:A2 4.50096e-05
15 *1603:A3 *236:25 7.35746e-05
16 *230:6 *236:10 5.67058e-05
17 *230:23 *236:10 9.8203e-05
18 *231:31 *1602:A2 8.48502e-06
19 *231:43 *236:25 3.36488e-05
20 *234:19 *236:25 2.32554e-05
21 *235:8 *236:10 5.31444e-05
22 *235:8 *236:25 1.58805e-05
23 *235:25 *236:25 3.75401e-05
*RES
1 *1509:Y *236:10 41.1279 
2 *236:10 *1603:A2 40.0714 
3 *236:10 *236:25 18.6664 
4 *236:25 *1602:A2 25.3407 
5 *236:25 *1510:D1 23 
*END

*D_NET *237 0.00269934
*CONN
*I *1511:D I *D sky130_fd_sc_hd__nand4_2
*I *1588:C I *D sky130_fd_sc_hd__nand3_1
*I *1510:X O *D sky130_fd_sc_hd__o2111a_1
*CAP
1 *1511:D 0.000275245
2 *1588:C 0
3 *1510:X 0.000468227
4 *237:12 0.000743472
5 *1511:D *1599:A1_N 0
6 *1511:D *238:6 7.53384e-06
7 *1511:D *317:10 0.000102365
8 *237:12 *255:43 7.8967e-06
9 *237:12 *317:10 0.000247596
10 *237:12 *317:18 7.26495e-05
11 *237:12 *318:12 0.000132342
12 *237:12 *318:20 3.39102e-05
13 *1511:B *1511:D 7.44316e-05
14 *1511:C *1511:D 0.000122751
15 *1511:C *237:12 1.83667e-05
16 *1602:A1 *237:12 2.05299e-05
17 *1602:A2 *237:12 4.32869e-05
18 *229:22 *237:12 0.000176465
19 *231:31 *237:12 0.000137651
20 *233:8 *237:12 0
21 *234:6 *237:12 5.37348e-06
22 *234:17 *237:12 9.24795e-06
*RES
1 *1510:X *237:12 48.7921 
2 *237:12 *1588:C 38 
3 *237:12 *1511:D 44.6286 
*END

*D_NET *238 0.0080063
*CONN
*I *1517:A2 I *D sky130_fd_sc_hd__a21oi_1
*I *1564:A2 I *D sky130_fd_sc_hd__a21boi_1
*I *1555:B I *D sky130_fd_sc_hd__nand2_2
*I *1511:Y O *D sky130_fd_sc_hd__nand4_2
*CAP
1 *1517:A2 9.93389e-05
2 *1564:A2 9.20303e-05
3 *1555:B 0
4 *1511:Y 0.00140664
5 *238:19 0.000306595
6 *238:10 0.00100237
7 *238:6 0.00229378
8 *1517:A2 *244:10 6.16531e-05
9 *1517:A2 *384:122 5.17808e-05
10 *1564:A2 *385:92 0.000172544
11 *238:6 *266:6 1.57322e-05
12 *238:6 *266:119 8.04797e-05
13 *238:10 *1661:A3 5.03902e-05
14 *238:10 *1661:B1 1.04193e-05
15 *238:10 *277:43 0.000273005
16 *238:10 *278:10 0
17 *238:10 *486:68 0
18 *238:19 *384:122 3.41507e-05
19 *1449:A1 *238:6 0.00011499
20 *1511:D *238:6 7.53384e-06
21 *1517:A1 *1517:A2 0.000246235
22 *1517:A1 *238:19 5.1504e-05
23 *1553:A *238:10 2.16227e-05
24 *1564:A1 *1564:A2 0.000172544
25 *3:23 *238:10 7.31082e-05
26 *63:8 *238:10 0
27 *116:8 *238:10 0.000496056
28 *150:8 *238:6 0.000396897
29 *150:20 *238:6 0.000161397
30 *162:56 *238:10 9.68343e-05
31 *162:56 *238:19 1.16455e-05
32 *173:18 *238:10 0
33 *176:8 *238:6 6.22284e-05
34 *205:24 *238:10 1.13812e-05
35 *205:24 *238:19 0.000131416
*RES
1 *1511:Y *238:6 47.4429 
2 *238:6 *238:10 32.7521 
3 *238:10 *1555:B 38 
4 *238:10 *238:19 2.61 
5 *238:19 *1564:A2 41.48 
6 *238:19 *1517:A2 41.3143 
*END

*D_NET *239 0.00774449
*CONN
*I *1516:A I *D sky130_fd_sc_hd__nand4_1
*I *1556:A I *D sky130_fd_sc_hd__and2_1
*I *1584:A I *D sky130_fd_sc_hd__or2_1
*I *1578:B I *D sky130_fd_sc_hd__nand2_1
*I *1585:A2 I *D sky130_fd_sc_hd__a21oi_1
*I *1512:X O *D sky130_fd_sc_hd__xor2_2
*CAP
1 *1516:A 0
2 *1556:A 3.92097e-05
3 *1584:A 0.000168878
4 *1578:B 0
5 *1585:A2 4.24164e-05
6 *1512:X 0
7 *239:70 0.000423593
8 *239:49 0.00088047
9 *239:34 0.000695822
10 *239:21 0.00022792
11 *239:6 0.00049851
12 *239:4 0.00033745
13 *1556:A *1556:B 3.15822e-05
14 *1556:A *240:12 1.9054e-05
15 *1556:A *385:92 5.3304e-05
16 *1584:A *303:127 0.000178517
17 *1585:A2 *305:16 5.70419e-05
18 *1585:A2 *389:36 9.84794e-05
19 *239:6 *305:16 9.92144e-05
20 *239:6 *389:36 0.000515892
21 *239:21 *279:31 5.01559e-05
22 *239:21 *360:162 0
23 *239:21 *474:25 0.00039202
24 *239:34 *255:92 6.05192e-05
25 *239:34 *389:36 5.3304e-05
26 *239:49 *279:49 0
27 *239:49 *303:127 0.000384474
28 *239:49 *389:10 0.000409097
29 *239:70 *1516:C 0.000302653
30 *239:70 *1556:B 2.93431e-05
31 *239:70 *1564:B1_N 5.32012e-05
32 *239:70 *243:10 0.000141118
33 *239:70 *279:49 0.000182261
34 *239:70 *279:55 0.000213311
35 *239:70 *280:12 3.18142e-05
36 *239:70 *385:92 0.000279826
37 *239:70 *389:157 7.78214e-05
38 *149:68 *239:34 0.000133237
39 *160:35 *239:49 4.91025e-05
40 *160:39 *1584:A 0.000350832
41 *160:39 *239:49 0.000183043
42 *163:18 *239:49 0
*RES
1 *1512:X *239:4 23 
2 *239:4 *239:6 5.86214 
3 *239:6 *1585:A2 24.595 
4 *239:6 *239:21 35.4271 
5 *239:21 *1578:B 23 
6 *239:4 *239:34 32.5271 
7 *239:34 *1584:A 26.9564 
8 *239:34 *239:49 40.2121 
9 *239:49 *1556:A 24.1186 
10 *239:49 *239:70 42.2836 
11 *239:70 *1516:A 23 
*END

*D_NET *240 0.003558
*CONN
*I *1580:A3 I *D sky130_fd_sc_hd__a31o_1
*I *1579:B1 I *D sky130_fd_sc_hd__a21oi_1
*I *1556:B I *D sky130_fd_sc_hd__and2_1
*I *1516:B I *D sky130_fd_sc_hd__nand4_1
*I *1513:X O *D sky130_fd_sc_hd__xor2_2
*CAP
1 *1580:A3 0
2 *1579:B1 0
3 *1556:B 0.000106014
4 *1516:B 0
5 *1513:X 5.57476e-05
6 *240:46 0.000161869
7 *240:36 0.00018441
8 *240:20 0.00018944
9 *240:12 0.000562196
10 *240:6 0.00034503
11 *1556:B *280:12 1.3523e-05
12 *1556:B *287:8 2.48995e-05
13 *1556:B *298:6 5.3304e-05
14 *1556:B *385:92 2.59977e-05
15 *240:6 *301:10 1.59094e-05
16 *240:6 *385:92 4.38587e-05
17 *240:12 *1577:C_N 9.95424e-05
18 *240:12 *1580:A1 2.81066e-05
19 *240:12 *298:6 3.1909e-05
20 *240:12 *385:92 0.000512294
21 *240:20 *1565:A2 3.7473e-07
22 *240:20 *1577:C_N 0.000340916
23 *240:20 *349:41 5.77147e-05
24 *240:20 *386:64 0.000215038
25 *240:46 *1579:A2 6.70717e-05
26 *240:46 *254:82 7.42327e-05
27 *240:46 *279:8 9.79925e-05
28 *240:46 *299:6 2.50118e-05
29 *240:46 *299:23 0.000132638
30 *240:46 *300:8 1.29848e-05
31 *1556:A *1556:B 3.15822e-05
32 *1556:A *240:12 1.9054e-05
33 *239:70 *1556:B 2.93431e-05
*RES
1 *1513:X *240:6 24.1289 
2 *240:6 *240:12 7.1775 
3 *240:12 *240:20 35.3443 
4 *240:20 *1516:B 23 
5 *240:12 *1556:B 25.5479 
6 *240:6 *240:36 0.590357 
7 *240:36 *240:46 33.8529 
8 *240:46 *1579:B1 23 
9 *240:36 *1580:A3 23 
*END

*D_NET *241 0.00650769
*CONN
*I *1567:B I *D sky130_fd_sc_hd__nand3_1
*I *1566:B1 I *D sky130_fd_sc_hd__a21oi_1
*I *1558:A3 I *D sky130_fd_sc_hd__a41o_1
*I *1516:C I *D sky130_fd_sc_hd__nand4_1
*I *1514:X O *D sky130_fd_sc_hd__xor2_2
*CAP
1 *1567:B 9.33415e-06
2 *1566:B1 0.000587957
3 *1558:A3 2.32701e-05
4 *1516:C 0.000392713
5 *1514:X 0.000172444
6 *241:40 0.000770259
7 *241:12 0.000955488
8 *241:10 0.000884918
9 *1516:C *1558:A1 0.00013449
10 *1516:C *243:10 2.43944e-05
11 *1516:C *279:55 2.94154e-05
12 *1516:C *279:63 2.47702e-05
13 *1516:C *389:157 0.000244526
14 *1558:A3 *1558:A4 5.3304e-05
15 *1558:A3 *1558:B1 5.3304e-05
16 *1566:B1 *288:42 2.35439e-06
17 *1566:B1 *289:16 0.000100477
18 *1566:B1 *290:8 0.000426641
19 *1567:B *1566:A1 5.55743e-06
20 *1567:B *288:42 1.12349e-05
21 *241:10 *389:157 0.000166233
22 *241:12 *280:12 0
23 *241:12 *389:157 0.000861014
24 *241:12 *463:55 0
25 *241:40 *288:42 3.19833e-05
26 *1568:A1 *1566:B1 3.86731e-05
27 *149:104 *241:10 0.000144494
28 *153:51 *1566:B1 5.5792e-05
29 *239:70 *1516:C 0.000302653
*RES
1 *1514:X *241:10 41.8321 
2 *241:10 *241:12 11.7657 
3 *241:12 *1516:C 46.2236 
4 *241:12 *1558:A3 38.6214 
5 *241:10 *241:40 18.1693 
6 *241:40 *1566:B1 33.73 
7 *241:40 *1567:B 23.4971 
*END

*D_NET *242 0.00316459
*CONN
*I *1573:B1 I *D sky130_fd_sc_hd__a211o_1
*I *1558:A4 I *D sky130_fd_sc_hd__a41o_1
*I *1565:B1 I *D sky130_fd_sc_hd__o21ai_2
*I *1516:D I *D sky130_fd_sc_hd__nand4_1
*I *1515:X O *D sky130_fd_sc_hd__xor2_2
*CAP
1 *1573:B1 0
2 *1558:A4 0.000166905
3 *1565:B1 0
4 *1516:D 0.000230844
5 *1515:X 0.000122764
6 *242:29 0.000386267
7 *242:23 0.000219362
8 *242:10 0.000353607
9 *1516:D *279:63 0.000199945
10 *1558:A4 *1558:A1 5.56279e-05
11 *1558:A4 *1558:A2 0.000233367
12 *1558:A4 *1558:B1 6.19722e-05
13 *242:29 *1558:B1 3.23857e-06
14 *242:29 *1565:A1 5.3304e-05
15 *242:29 *1565:A2 0.000139346
16 *242:29 *1573:A2 3.10777e-05
17 *242:29 *286:16 5.01814e-05
18 *242:29 *288:10 0.00017761
19 *1438:B1 *242:10 9.84794e-05
20 *1558:A3 *1558:A4 5.3304e-05
21 *153:39 *1516:D 3.07161e-05
22 *153:39 *242:10 4.63058e-05
23 *165:8 *242:10 5.50049e-05
24 *200:69 *1516:D 0.000238881
25 *200:69 *242:10 0.000156482
*RES
1 *1515:X *242:10 41.3557 
2 *242:10 *1516:D 42.8886 
3 *242:10 *242:23 15 
4 *242:23 *242:29 4.95071 
5 *242:29 *1565:B1 23 
6 *242:29 *1558:A4 26.9564 
7 *242:23 *1573:B1 23 
*END

*D_NET *243 0.00205657
*CONN
*I *1517:B1 I *D sky130_fd_sc_hd__a21oi_1
*I *1516:Y O *D sky130_fd_sc_hd__nand4_1
*CAP
1 *1517:B1 5.25148e-05
2 *1516:Y 0.00054303
3 *243:10 0.000595545
4 *243:10 *279:63 0.000311537
5 *243:10 *389:157 0
6 *1516:C *243:10 2.43944e-05
7 *1557:B1 *243:10 6.77463e-05
8 *159:41 *1517:B1 0.000137651
9 *173:105 *243:10 5.56279e-05
10 *200:50 *1517:B1 2.64616e-05
11 *200:54 *1517:B1 3.22763e-05
12 *200:82 *243:10 6.86685e-05
13 *239:70 *243:10 0.000141118
*RES
1 *1516:Y *243:10 48.2536 
2 *243:10 *1517:B1 39.5743 
*END

*D_NET *244 0.00210826
*CONN
*I *1523:A2 I *D sky130_fd_sc_hd__o21bai_2
*I *1544:A2 I *D sky130_fd_sc_hd__o21bai_2
*I *1517:Y O *D sky130_fd_sc_hd__a21oi_1
*CAP
1 *1523:A2 0.000221128
2 *1544:A2 0
3 *1517:Y 0.000385769
4 *244:10 0.000606897
5 *1523:A2 *249:8 4.79544e-05
6 *1523:A2 *269:10 7.8403e-05
7 *1523:A2 *269:31 8.1796e-05
8 *1523:A2 *384:122 1.12695e-05
9 *244:10 *278:10 0
10 *244:10 *384:122 0.000414741
11 *1517:A2 *244:10 6.16531e-05
12 *1520:A1 *244:10 0
13 *159:41 *244:10 0
14 *165:39 *1523:A2 9.91113e-05
15 *165:39 *244:10 2.75733e-06
16 *200:50 *244:10 9.67842e-05
*RES
1 *1517:Y *244:10 45.5814 
2 *244:10 *1544:A2 38 
3 *244:10 *1523:A2 42.8057 
*END

*D_NET *245 0.00392473
*CONN
*I *1547:B1 I *D sky130_fd_sc_hd__o211ai_1
*I *1522:A I *D sky130_fd_sc_hd__nand3_1
*I *1545:B1 I *D sky130_fd_sc_hd__a21oi_1
*I *1518:X O *D sky130_fd_sc_hd__xor2_1
*CAP
1 *1547:B1 0
2 *1522:A 0
3 *1545:B1 0.000156542
4 *1518:X 0.000233572
5 *245:33 0.000152507
6 *245:16 0.000430432
7 *245:12 0.000563262
8 *245:8 0.000675451
9 *1545:B1 *1545:A1 5.3304e-05
10 *1545:B1 *1547:C1 3.04642e-05
11 *1545:B1 *270:10 8.48502e-06
12 *245:8 *380:103 0.000147656
13 *245:12 *1551:C 1.37184e-05
14 *245:12 *246:10 0.000112352
15 *245:12 *246:16 4.21594e-06
16 *245:12 *270:10 0.000138727
17 *245:12 *275:10 0
18 *245:12 *276:8 4.11274e-05
19 *245:12 *460:10 0.000278816
20 *245:12 *464:27 0.000157874
21 *245:16 *1547:C1 0.000110595
22 *245:33 *1545:A1 8.49387e-06
23 *245:33 *246:16 0.000210889
24 *245:33 *250:6 9.84794e-05
25 *245:33 *269:31 0.000162818
26 *161:86 *245:8 4.07777e-05
27 *161:98 *245:8 9.41704e-05
*RES
1 *1518:X *245:8 41.48 
2 *245:8 *245:12 25.3571 
3 *245:12 *245:16 2.54786 
4 *245:16 *1545:B1 25.5479 
5 *245:16 *245:33 34.06 
6 *245:33 *1522:A 23 
7 *245:12 *1547:B1 23 
*END

*D_NET *246 0.00540364
*CONN
*I *1551:C I *D sky130_fd_sc_hd__or3_1
*I *1547:A1 I *D sky130_fd_sc_hd__o211ai_1
*I *1525:A2 I *D sky130_fd_sc_hd__a221o_1
*I *1521:B1 I *D sky130_fd_sc_hd__a311o_1
*I *1520:B1 I *D sky130_fd_sc_hd__o21ai_1
*I *1519:Y O *D sky130_fd_sc_hd__inv_2
*CAP
1 *1551:C 0.000121034
2 *1547:A1 0
3 *1525:A2 0.00017605
4 *1521:B1 1.955e-05
5 *1520:B1 0
6 *1519:Y 0.000112693
7 *246:33 0.000256081
8 *246:26 0.000210163
9 *246:16 0.000651234
10 *246:10 0.000725731
11 *246:8 0.000578867
12 *1525:A2 *483:111 8.48502e-06
13 *1551:C *266:161 7.15579e-05
14 *1551:C *275:10 2.15318e-05
15 *246:8 *266:161 2.60063e-05
16 *246:8 *464:27 2.95423e-05
17 *246:10 *270:10 6.68793e-05
18 *246:10 *274:10 5.65824e-05
19 *246:10 *275:10 0.0001384
20 *246:10 *278:10 0
21 *246:16 *1545:A1 0
22 *246:16 *248:17 0
23 *246:16 *248:32 0
24 *246:16 *269:31 1.37349e-05
25 *246:16 *271:10 0.000522606
26 *246:16 *460:10 0
27 *246:26 *1522:B 4.21594e-06
28 *246:26 *1543:B 5.67058e-05
29 *246:26 *1557:A1 1.94693e-05
30 *246:26 *1732:A 5.12254e-05
31 *246:26 *247:19 2.04774e-05
32 *246:26 *248:6 3.71369e-05
33 *246:26 *248:17 0.000163361
34 *246:26 *248:32 2.55642e-05
35 *246:26 *268:8 2.18409e-05
36 *246:26 *383:171 6.68587e-05
37 *246:33 *1521:A1 5.67058e-05
38 *1521:A2 *246:33 2.18506e-05
39 *1521:C1 *1521:B1 9.95589e-06
40 *1521:C1 *1525:A2 2.02872e-05
41 *1521:C1 *246:33 2.18409e-05
42 *1525:B2 *1525:A2 4.23395e-05
43 *1525:C1 *1525:A2 9.84851e-05
44 *1551:A *1551:C 5.67464e-05
45 *173:91 *1525:A2 0.000102953
46 *173:105 *1525:A2 0.00013169
47 *173:105 *246:26 0.000123934
48 *173:105 *246:33 0.000102093
49 *245:12 *1551:C 1.37184e-05
50 *245:12 *246:10 0.000112352
51 *245:12 *246:16 4.21594e-06
52 *245:33 *246:16 0.000210889
*RES
1 *1519:Y *246:8 39.5743 
2 *246:8 *246:10 7.54 
3 *246:10 *246:16 23.7414 
4 *246:16 *246:26 36.235 
5 *246:26 *1520:B1 23 
6 *246:16 *246:33 2.05071 
7 *246:33 *1521:B1 23.4971 
8 *246:33 *1525:A2 28.1009 
9 *246:10 *1547:A1 38 
10 *246:8 *1551:C 41.0502 
*END

*D_NET *247 0.00248772
*CONN
*I *1522:B I *D sky130_fd_sc_hd__nand3_1
*I *1543:B I *D sky130_fd_sc_hd__nand2_1
*I *1557:A2 I *D sky130_fd_sc_hd__a21o_1
*I *1520:Y O *D sky130_fd_sc_hd__o21ai_1
*CAP
1 *1522:B 0.000250154
2 *1543:B 5.18796e-05
3 *1557:A2 0.000224359
4 *1520:Y 0
5 *247:19 0.000319085
6 *247:6 0.00024141
7 *1522:B *1522:C 9.84794e-05
8 *1522:B *1545:A1 0
9 *1522:B *248:32 0
10 *1522:B *249:8 2.4754e-05
11 *1522:B *250:6 0.000141954
12 *1522:B *278:10 0.000198518
13 *1543:B *1543:A 0
14 *1543:B *268:8 9.84851e-05
15 *1557:A2 *1557:A1 0.000212482
16 *1557:A2 *278:10 0.000162809
17 *1557:A2 *383:171 0.000165049
18 *247:19 *278:10 5.46706e-05
19 *247:19 *383:171 1.14452e-05
20 *1520:A1 *1543:B 1.18862e-05
21 *173:105 *1557:A2 0.000138905
22 *246:26 *1522:B 4.21594e-06
23 *246:26 *1543:B 5.67058e-05
24 *246:26 *247:19 2.04774e-05
*RES
1 *1520:Y *247:6 38 
2 *247:6 *1557:A2 44.6907 
3 *247:6 *247:19 0.849286 
4 *247:19 *1543:B 39.595 
5 *247:19 *1522:B 43.1579 
*END

*D_NET *248 0.00357721
*CONN
*I *1545:A1 I *D sky130_fd_sc_hd__a21oi_1
*I *1522:C I *D sky130_fd_sc_hd__nand3_1
*I *1543:A I *D sky130_fd_sc_hd__nand2_1
*I *1557:A1 I *D sky130_fd_sc_hd__a21o_1
*I *1521:X O *D sky130_fd_sc_hd__a311o_1
*CAP
1 *1545:A1 0.000276938
2 *1522:C 5.81488e-05
3 *1543:A 5.44604e-05
4 *1557:A1 0.000505114
5 *1521:X 6.56386e-05
6 *248:32 0.000530404
7 *248:17 0.000423678
8 *248:6 0.000744653
9 *1522:C *249:8 5.67058e-05
10 *1543:A *1732:A 4.77283e-06
11 *1545:A1 *269:31 1.02219e-05
12 *1545:A1 *270:10 2.51385e-05
13 *1545:A1 *274:10 0.000166513
14 *1545:A1 *278:10 0
15 *248:17 *271:10 0
16 *248:17 *383:171 2.11668e-05
17 *1522:B *1522:C 9.84794e-05
18 *1522:B *1545:A1 0
19 *1522:B *248:32 0
20 *1543:B *1543:A 0
21 *1545:B1 *1545:A1 5.3304e-05
22 *1557:A2 *1557:A1 0.000212482
23 *173:105 *1557:A1 1.53678e-05
24 *245:33 *1545:A1 8.49387e-06
25 *246:16 *1545:A1 0
26 *246:16 *248:17 0
27 *246:16 *248:32 0
28 *246:26 *1557:A1 1.94693e-05
29 *246:26 *248:6 3.71369e-05
30 *246:26 *248:17 0.000163361
31 *246:26 *248:32 2.55642e-05
*RES
1 *1521:X *248:6 24.0979 
2 *248:6 *1557:A1 29.815 
3 *248:6 *248:17 18.3143 
4 *248:17 *1543:A 39.1911 
5 *248:17 *248:32 2.61 
6 *248:32 *1522:C 39.595 
7 *248:32 *1545:A1 42.64 
*END

*D_NET *249 0.00108626
*CONN
*I *1523:B1_N I *D sky130_fd_sc_hd__o21bai_2
*I *1522:Y O *D sky130_fd_sc_hd__nand3_1
*CAP
1 *1523:B1_N 0
2 *1522:Y 0.000377713
3 *249:8 0.000377713
4 *249:8 *250:6 1.03955e-05
5 *249:8 *269:31 9.8971e-06
6 *1522:B *249:8 2.4754e-05
7 *1522:C *249:8 5.67058e-05
8 *1523:A2 *249:8 4.79544e-05
9 *165:39 *249:8 0.000181125
*RES
1 *1522:Y *249:8 28.7586 
2 *249:8 *1523:B1_N 23 
*END

*D_NET *250 0.00472017
*CONN
*I *1526:B1 I *D sky130_fd_sc_hd__a22oi_1
*I *1538:A1 I *D sky130_fd_sc_hd__a31oi_1
*I *1536:A1 I *D sky130_fd_sc_hd__a21o_1
*I *1523:Y O *D sky130_fd_sc_hd__o21bai_2
*CAP
1 *1526:B1 0
2 *1538:A1 0
3 *1536:A1 0
4 *1523:Y 0.00055491
5 *250:34 0.000368199
6 *250:14 0.000156976
7 *250:6 0.00108008
8 *250:6 *1549:A1 2.32004e-05
9 *250:6 *1549:B1 5.3304e-05
10 *250:6 *256:8 0.000162647
11 *250:6 *261:18 5.3304e-05
12 *250:6 *264:10 0.000144211
13 *250:6 *269:31 0.000355822
14 *250:6 *274:10 0.000204939
15 *250:14 *252:25 8.58857e-05
16 *250:14 *261:10 2.93845e-05
17 *250:14 *261:18 0.000160554
18 *250:14 *266:155 2.95125e-05
19 *250:14 *483:36 3.39192e-05
20 *250:34 *253:12 0.000115398
21 *250:34 *256:8 3.59538e-05
22 *250:34 *263:114 0.000400403
23 *250:34 *264:10 2.02872e-05
24 *250:34 *483:26 0.000277955
25 *1522:B *250:6 0.000141954
26 *1526:A2 *250:34 1.83408e-05
27 *149:153 *250:34 5.44904e-05
28 *153:123 *250:34 0
29 *165:39 *250:6 4.9662e-05
30 *245:33 *250:6 9.84794e-05
31 *249:8 *250:6 1.03955e-05
*RES
1 *1523:Y *250:6 37.9143 
2 *250:6 *250:14 33.5836 
3 *250:14 *1536:A1 23 
4 *250:6 *1538:A1 23 
5 *250:6 *250:34 39.3214 
6 *250:34 *1526:B1 23 
*END

*D_NET *251 0.00413554
*CONN
*I *1542:B2 I *D sky130_fd_sc_hd__o2bb2ai_1
*I *1549:A1 I *D sky130_fd_sc_hd__a31o_1
*I *1525:A1 I *D sky130_fd_sc_hd__a221o_1
*I *1524:Y O *D sky130_fd_sc_hd__inv_2
*CAP
1 *1542:B2 0
2 *1549:A1 6.82974e-05
3 *1525:A1 0.000211556
4 *1524:Y 9.45573e-05
5 *251:16 0.00109763
6 *251:6 0.000912335
7 *1525:A1 *256:21 0.000401944
8 *1525:A1 *460:10 0
9 *1549:A1 *1549:B1 1.24376e-05
10 *1549:A1 *256:8 2.57604e-05
11 *251:6 *380:103 0.00014384
12 *251:16 *1542:A2_N 0.000698827
13 *251:16 *256:21 6.16439e-05
14 *251:16 *264:10 5.86165e-05
15 *251:16 *266:155 0
16 *251:16 *380:103 0.000145171
17 *251:16 *381:54 0
18 *251:16 *460:10 0
19 *1525:B1 *1525:A1 1.14452e-05
20 *161:86 *251:16 0
21 *173:143 *1525:A1 0.000138768
22 *173:143 *251:16 2.95125e-05
23 *250:6 *1549:A1 2.32004e-05
*RES
1 *1524:Y *251:6 24.5743 
2 *251:6 *251:16 31.5714 
3 *251:16 *1525:A1 43.4271 
4 *251:16 *1549:A1 39.6157 
5 *251:6 *1542:B2 23 
*END

*D_NET *252 0.00290315
*CONN
*I *1526:B2 I *D sky130_fd_sc_hd__a22oi_1
*I *1536:A2 I *D sky130_fd_sc_hd__a21o_1
*I *1538:A2 I *D sky130_fd_sc_hd__a31oi_1
*I *1525:X O *D sky130_fd_sc_hd__a221o_1
*CAP
1 *1526:B2 0.000277388
2 *1536:A2 0
3 *1538:A2 0
4 *1525:X 0.000188325
5 *252:25 0.000636779
6 *252:12 0.000520852
7 *252:8 0.000349787
8 *1526:B2 *1535:A 9.65021e-05
9 *1526:B2 *1536:B1 4.00259e-06
10 *1526:B2 *261:10 1.67633e-05
11 *252:8 *256:21 0.000144752
12 *252:8 *266:155 0
13 *252:12 *256:8 0.000226306
14 *252:25 *1535:A 1.12863e-05
15 *252:25 *256:8 0.000139346
16 *252:25 *398:22 0
17 *252:25 *483:36 0.000108277
18 *1526:A2 *1526:B2 2.43944e-05
19 *149:153 *252:25 1.96778e-05
20 *161:68 *1526:B2 4.67488e-05
21 *173:83 *252:8 6.07611e-06
22 *250:14 *252:25 8.58857e-05
*RES
1 *1525:X *252:8 42.0186 
2 *252:8 *252:12 17.5271 
3 *252:12 *1538:A2 23 
4 *252:12 *252:25 35.5929 
5 *252:25 *1536:A2 23 
6 *252:25 *1526:B2 27.4536 
*END

*D_NET *253 0.000909074
*CONN
*I *1532:A2_N I *D sky130_fd_sc_hd__a2bb2o_1
*I *1526:Y O *D sky130_fd_sc_hd__a22oi_1
*CAP
1 *1532:A2_N 4.71886e-05
2 *1526:Y 0.000201456
3 *253:12 0.000248644
4 *1532:A2_N *390:113 2.46906e-05
5 *253:12 *1526:A1 0
6 *253:12 *398:22 6.75313e-05
7 *1437:C1 *1532:A2_N 9.92345e-05
8 *149:153 *253:12 4.51431e-05
9 *153:123 *253:12 0
10 *161:66 *253:12 4.15283e-06
11 *164:14 *1532:A2_N 5.56356e-05
12 *250:34 *253:12 0.000115398
*RES
1 *1526:Y *253:12 42.0807 
2 *253:12 *1532:A2_N 39.595 
*END

*D_NET *254 0.0261377
*CONN
*I *1559:A2 I *D sky130_fd_sc_hd__a22o_1
*I *1549:A3 I *D sky130_fd_sc_hd__a31o_1
*I *1574:A2 I *D sky130_fd_sc_hd__a22o_1
*I *1528:B I *D sky130_fd_sc_hd__nand2_2
*I *1620:A3 I *D sky130_fd_sc_hd__a32o_1
*I *1625:A3 I *D sky130_fd_sc_hd__a32o_1
*I *1609:A3 I *D sky130_fd_sc_hd__a31o_1
*I *1527:Y O *D sky130_fd_sc_hd__nand2_4
*CAP
1 *1559:A2 0
2 *1549:A3 0
3 *1574:A2 0
4 *1528:B 5.49658e-05
5 *1620:A3 4.48933e-05
6 *1625:A3 0.000214188
7 *1609:A3 0
8 *1527:Y 0.000152541
9 *254:111 0.000602806
10 *254:99 0.00147849
11 *254:88 7.22789e-05
12 *254:82 0.0023347
13 *254:63 0.00215168
14 *254:48 0.00101368
15 *254:33 0.000472992
16 *254:31 0.00155062
17 *254:16 0.00128129
18 *254:10 0.00298445
19 *1528:B *306:12 9.84851e-05
20 *1528:B *361:42 0.000226931
21 *1528:B *383:146 6.97637e-05
22 *1625:A3 *1624:A1 0
23 *1625:A3 *334:29 7.73596e-05
24 *1625:A3 *335:16 0.000187986
25 *1625:A3 *467:31 4.96291e-05
26 *254:10 *480:33 9.03164e-05
27 *254:16 *325:8 2.03764e-06
28 *254:16 *470:46 1.59094e-05
29 *254:16 *480:33 0.000202035
30 *254:16 *492:109 3.58084e-06
31 *254:31 *1443:A 2.93335e-05
32 *254:31 *1497:A2 3.28708e-05
33 *254:31 *476:32 0.00012018
34 *254:31 *476:45 8.34394e-05
35 *254:48 *333:10 9.21347e-06
36 *254:48 *334:29 0.000108962
37 *254:63 *329:10 0.000169674
38 *254:63 *468:36 0.000182029
39 *254:63 *473:77 0
40 *254:82 *1438:A3 0.000302823
41 *254:82 *263:68 0.000109262
42 *254:82 *278:57 0.000555971
43 *254:82 *300:8 1.60949e-05
44 *254:82 *303:127 0.000210697
45 *254:82 *304:8 0.000365754
46 *254:82 *306:8 6.33614e-05
47 *254:82 *462:23 5.58534e-05
48 *254:82 *473:77 0
49 *254:82 *474:57 7.28526e-05
50 *254:82 *491:61 0.000323196
51 *254:82 *491:65 0.000148693
52 *254:88 *259:47 5.35139e-05
53 *254:99 *1438:A3 0.000256593
54 *254:99 *1559:B1 7.1535e-05
55 *254:99 *1559:B2 0.000122286
56 *254:99 *269:10 1.44014e-05
57 *254:99 *283:8 4.2812e-06
58 *254:99 *462:32 2.18409e-05
59 *254:111 *269:10 6.10551e-06
60 *254:111 *359:95 0.0013619
61 *254:111 *384:108 6.63073e-05
62 *254:111 *384:135 0.00041554
63 *254:111 *389:157 0
64 *1454:A *254:16 0.000182832
65 *1454:B *254:16 1.23487e-05
66 *1457:A1 *254:16 0
67 *1458:A2 *254:16 2.18286e-05
68 *1644:A2 *254:31 0.000517593
69 *148:12 *254:31 6.7177e-06
70 *149:68 *254:63 0
71 *149:68 *254:82 0.000148326
72 *149:70 *254:82 9.72587e-05
73 *153:12 *254:31 0.000866676
74 *153:39 *254:88 0.000166522
75 *155:26 *254:16 0.000179457
76 *165:8 *254:99 1.72605e-05
77 *170:14 *254:31 0.000186606
78 *170:21 *254:31 0.000270682
79 *170:25 *254:10 7.70737e-05
80 *170:25 *254:31 8.4047e-05
81 *170:31 *254:10 1.01436e-05
82 *173:30 *1620:A3 6.72084e-05
83 *173:30 *254:63 0.000469553
84 *173:46 *1620:A3 4.33668e-05
85 *173:46 *1625:A3 0.000196713
86 *173:46 *254:48 0.000451121
87 *173:125 *254:99 3.04865e-05
88 *173:125 *254:111 3.36312e-06
89 *173:143 *254:111 2.33476e-05
90 *179:14 *254:16 3.12321e-05
91 *179:40 *254:16 2.07026e-05
92 *185:10 *254:16 0.00035857
93 *200:69 *254:88 1.67942e-05
94 *209:26 *254:48 0
95 *209:26 *254:63 2.60807e-06
96 *220:8 *1625:A3 8.62783e-05
97 *220:8 *254:48 0.00021039
98 *224:10 *254:31 2.49531e-05
99 *226:26 *254:63 8.72054e-06
100 *228:14 *254:63 0.000384489
101 *240:46 *254:82 7.42327e-05
*RES
1 *1527:Y *254:10 40.7757 
2 *254:10 *254:16 32.6693 
3 *254:16 *1609:A3 23 
4 *254:10 *254:31 42.115 
5 *254:31 *254:33 15 
6 *254:33 *1625:A3 43.4893 
7 *254:33 *254:48 7.01179 
8 *254:48 *1620:A3 39.4189 
9 *254:48 *254:63 17.4932 
10 *254:63 *1528:B 40.5271 
11 *254:63 *254:82 45.9264 
12 *254:82 *254:88 32.2579 
13 *254:88 *1574:A2 23 
14 *254:82 *254:99 27.3043 
15 *254:99 *254:111 34.1883 
16 *254:111 *1549:A3 23 
17 *254:99 *1559:A2 38 
*END

*D_NET *255 0.0211481
*CONN
*I *1581:A2 I *D sky130_fd_sc_hd__o22ai_1
*I *1531:A1 I *D sky130_fd_sc_hd__a21oi_1
*I *1604:A2 I *D sky130_fd_sc_hd__o221a_1
*I *1608:A I *D sky130_fd_sc_hd__and3_1
*I *1616:A2 I *D sky130_fd_sc_hd__o211ai_1
*I *1528:Y O *D sky130_fd_sc_hd__nand2_2
*CAP
1 *1581:A2 0
2 *1531:A1 0
3 *1604:A2 0
4 *1608:A 0
5 *1616:A2 0.000131502
6 *1528:Y 4.3084e-05
7 *255:92 0.00116176
8 *255:77 0.00075126
9 *255:60 0.000639102
10 *255:52 0.00193499
11 *255:43 0.000813076
12 *255:35 0.00207694
13 *255:27 0.00267779
14 *255:10 0.0021934
15 *255:8 0.00130819
16 *1616:A2 *1616:B1 0.000121278
17 *255:8 *361:42 4.67488e-05
18 *255:8 *383:146 9.77405e-05
19 *255:35 *303:16 2.64506e-05
20 *255:43 *263:92 5.3304e-05
21 *255:43 *322:10 0.000105671
22 *255:43 *323:12 0.000386215
23 *255:43 *469:29 0.000188916
24 *255:52 *308:18 8.49716e-05
25 *255:52 *308:26 9.84851e-05
26 *255:60 *321:21 0
27 *255:60 *385:102 0.000751305
28 *255:77 *1530:B 0
29 *255:77 *1531:B1 2.50118e-05
30 *255:77 *256:55 8.49722e-05
31 *255:77 *258:10 0.000145171
32 *255:77 *321:21 0
33 *255:77 *385:102 0.000369615
34 *255:77 *400:28 0
35 *255:77 *472:12 0.000189857
36 *255:92 *1581:B1 0.000306338
37 *255:92 *263:68 0
38 *255:92 *350:20 2.47015e-05
39 *255:92 *485:22 0.000162263
40 *1511:C *255:43 0.000293134
41 *94:10 *255:60 0
42 *149:43 *1616:A2 2.76611e-06
43 *149:68 *1616:A2 9.35752e-05
44 *149:68 *255:10 5.40866e-05
45 *149:68 *255:92 0.000189805
46 *153:39 *1616:A2 7.61771e-05
47 *153:39 *255:10 4.60263e-05
48 *153:39 *255:92 0.000538727
49 *161:20 *255:92 0.000289437
50 *163:111 *255:77 8.86967e-05
51 *172:21 *255:27 5.72903e-05
52 *172:27 *255:35 4.18957e-05
53 *172:38 *255:35 0.000435849
54 *173:18 *255:27 0.000501772
55 *173:18 *255:35 5.50106e-05
56 *173:68 *255:10 8.9458e-05
57 *173:75 *255:35 4.75206e-05
58 *173:152 *255:35 0.000207612
59 *173:158 *255:43 0
60 *173:162 *255:43 0
61 *193:44 *255:52 0.000224605
62 *193:61 *255:52 0.000178414
63 *206:8 *255:43 5.08899e-05
64 *229:22 *255:43 0.000375835
65 *230:44 *255:60 0.000141029
66 *237:12 *255:43 7.8967e-06
67 *239:34 *255:92 6.05192e-05
*RES
1 *1528:Y *255:8 39.0979 
2 *255:8 *255:10 2.61 
3 *255:10 *1616:A2 41.6664 
4 *255:10 *255:27 41.0379 
5 *255:27 *255:35 44.21 
6 *255:35 *255:43 47.6693 
7 *255:43 *1608:A 23 
8 *255:35 *255:52 24.6736 
9 *255:52 *255:60 29.2929 
10 *255:60 *1604:A2 23 
11 *255:52 *255:77 33.85 
12 *255:77 *1531:A1 23 
13 *255:8 *255:92 36.7914 
14 *255:92 *1581:A2 23 
*END

*D_NET *256 0.0147553
*CONN
*I *1697:D I *D sky130_fd_sc_hd__or4_1
*I *1627:A I *D sky130_fd_sc_hd__nand2_8
*I *1700:B I *D sky130_fd_sc_hd__or2_1
*I *1703:A2 I *D sky130_fd_sc_hd__o211ai_1
*I *1530:A I *D sky130_fd_sc_hd__and2_1
*I *1646:A I *D sky130_fd_sc_hd__and3_1
*I *1582:A I *D sky130_fd_sc_hd__clkbuf_4
*I *1549:B1 I *D sky130_fd_sc_hd__a31o_1
*I *1529:Y O *D sky130_fd_sc_hd__inv_2
*CAP
1 *1697:D 0
2 *1627:A 0
3 *1700:B 0.000129582
4 *1703:A2 0.000173576
5 *1530:A 0
6 *1646:A 0
7 *1582:A 2.45875e-05
8 *1549:B1 2.97751e-05
9 *1529:Y 0
10 *256:83 0.000129582
11 *256:72 0.000400433
12 *256:68 0.00049241
13 *256:59 0.000390997
14 *256:55 0.000911404
15 *256:38 0.000324636
16 *256:21 0.0009913
17 *256:8 0.00157904
18 *256:4 0.00169314
19 *1582:A *483:61 0.000100486
20 *1700:B *1700:A 5.50106e-05
21 *1700:B *339:6 1.83327e-05
22 *1700:B *339:139 4.03149e-05
23 *1700:B *400:22 0.000313524
24 *1703:A2 *339:10 5.55283e-05
25 *1703:A2 *339:16 5.1916e-05
26 *1703:A2 *359:18 8.5455e-05
27 *256:8 *261:18 5.50106e-05
28 *256:8 *263:114 0.000871356
29 *256:8 *390:42 0.000254293
30 *256:21 *266:155 0
31 *256:38 *266:119 0.000205224
32 *256:38 *266:155 0.000193702
33 *256:38 *473:32 0.000180218
34 *256:38 *483:61 8.68775e-05
35 *256:55 *1758:A 0.000154856
36 *256:55 *344:10 0.000138718
37 *256:55 *359:16 0
38 *256:55 *360:87 0.000463437
39 *256:55 *385:100 0
40 *256:55 *385:102 0.000493468
41 *256:55 *390:42 0.000136738
42 *256:55 *434:8 4.334e-05
43 *256:59 *278:121 0.000320097
44 *256:68 *1697:A 7.97439e-06
45 *256:68 *1697:C 5.55743e-06
46 *256:68 *257:10 0.00011871
47 *256:68 *278:121 0.000226896
48 *256:72 *1662:D_N 0
49 *256:72 *339:10 2.46933e-05
50 *256:72 *359:18 0.000146826
51 *256:72 *494:43 0
52 *1525:A1 *256:21 0.000401944
53 *1525:B1 *256:21 0.00018395
54 *1549:A1 *1549:B1 1.24376e-05
55 *1549:A1 *256:8 2.57604e-05
56 *1801:D *256:55 5.92108e-05
57 *85:10 *256:55 0.000169245
58 *157:23 *256:21 8.17956e-05
59 *161:52 *1582:A 9.79925e-05
60 *161:52 *256:38 0.00022823
61 *163:111 *256:38 6.55954e-05
62 *163:124 *256:55 0
63 *173:83 *256:21 0
64 *173:83 *256:38 0.000401148
65 *250:6 *1549:B1 5.3304e-05
66 *250:6 *256:8 0.000162647
67 *250:34 *256:8 3.59538e-05
68 *251:16 *256:21 6.16439e-05
69 *252:8 *256:21 0.000144752
70 *252:12 *256:8 0.000226306
71 *252:25 *256:8 0.000139346
72 *255:77 *256:55 8.49722e-05
*RES
1 *1529:Y *256:4 23 
2 *256:4 *256:8 20.1757 
3 *256:8 *1549:B1 23.6214 
4 *256:8 *256:21 43.8786 
5 *256:21 *1582:A 24.0979 
6 *256:21 *256:38 40.005 
7 *256:38 *1646:A 23 
8 *256:4 *256:55 35.01 
9 *256:55 *256:59 18.48 
10 *256:59 *1530:A 23 
11 *256:59 *256:68 5.88286 
12 *256:68 *256:72 20.7793 
13 *256:72 *1703:A2 41.6664 
14 *256:72 *256:83 15 
15 *256:83 *1700:B 26.9771 
16 *256:83 *1627:A 23 
17 *256:68 *1697:D 23 
*END

*D_NET *257 0.00239064
*CONN
*I *1698:A2 I *D sky130_fd_sc_hd__o21ai_1
*I *1531:B1 I *D sky130_fd_sc_hd__a21oi_1
*I *1530:X O *D sky130_fd_sc_hd__and2_1
*CAP
1 *1698:A2 0.000117832
2 *1531:B1 0.00036877
3 *1530:X 0.000286323
4 *257:10 0.000772925
5 *1531:B1 *472:12 5.5792e-05
6 *1531:B1 *495:61 1.1258e-05
7 *1698:A2 *358:8 0.00016524
8 *1698:A2 *359:18 8.7975e-05
9 *1698:A2 *495:69 5.75756e-06
10 *257:10 *278:121 5.3304e-05
11 *257:10 *359:18 8.08204e-05
12 *257:10 *495:69 8.08204e-05
13 *163:111 *1531:B1 7.64059e-06
14 *163:118 *1531:B1 5.5792e-05
15 *163:167 *1531:B1 9.66668e-05
16 *255:77 *1531:B1 2.50118e-05
17 *256:68 *257:10 0.00011871
*RES
1 *1530:X *257:10 43.2614 
2 *257:10 *1531:B1 44.3593 
3 *257:10 *1698:A2 40.61 
*END

*D_NET *258 0.00563565
*CONN
*I *1532:B1 I *D sky130_fd_sc_hd__a2bb2o_1
*I *1531:Y O *D sky130_fd_sc_hd__a21oi_1
*CAP
1 *1532:B1 0
2 *1531:Y 0.000120654
3 *258:22 4.90023e-05
4 *258:16 0.00148353
5 *258:10 0.00155518
6 *258:10 *472:12 8.13511e-05
7 *258:10 *472:18 5.76359e-05
8 *258:16 *1435:A 0.000140259
9 *258:16 *1758:A 4.39997e-05
10 *258:16 *259:94 0
11 *258:16 *360:72 3.87221e-06
12 *258:16 *360:87 0.000874492
13 *258:16 *385:100 1.02561e-05
14 *258:16 *385:102 8.18776e-05
15 *258:16 *472:18 1.7403e-05
16 *258:16 *493:14 9.67842e-05
17 *258:16 *493:27 0.000131017
18 *258:22 *1526:A1 0.000113153
19 *153:123 *258:22 0.000110922
20 *162:8 *258:16 0.000109216
21 *163:111 *258:10 0.000409875
22 *255:77 *258:10 0.000145171
*RES
1 *1531:Y *258:10 42.93 
2 *258:10 *258:16 42.3014 
3 *258:16 *258:22 31.5536 
4 *258:22 *1532:B1 23 
*END

*D_NET *259 0.044099
*CONN
*I *1648:A2 I *D sky130_fd_sc_hd__a22o_1
*I *1656:A2 I *D sky130_fd_sc_hd__a22o_1
*I *1652:A2 I *D sky130_fd_sc_hd__a22o_1
*I *1650:A2 I *D sky130_fd_sc_hd__a22o_1
*I *1654:A2 I *D sky130_fd_sc_hd__a22o_1
*I *1604:C1 I *D sky130_fd_sc_hd__o221a_1
*I *1534:B1 I *D sky130_fd_sc_hd__o31a_1
*I *1560:B1 I *D sky130_fd_sc_hd__o31a_1
*I *1616:B1 I *D sky130_fd_sc_hd__o211ai_1
*I *1575:B1 I *D sky130_fd_sc_hd__o31a_1
*I *1533:X O *D sky130_fd_sc_hd__clkbuf_4
*CAP
1 *1648:A2 1.42809e-05
2 *1656:A2 0
3 *1652:A2 0
4 *1650:A2 7.78451e-05
5 *1654:A2 0.000297785
6 *1604:C1 2.51337e-05
7 *1534:B1 0
8 *1560:B1 0.000183659
9 *1616:B1 8.59812e-05
10 *1575:B1 5.14265e-05
11 *1533:X 0
12 *259:180 0.000560238
13 *259:167 0.000134812
14 *259:141 0.000743737
15 *259:135 0.00187356
16 *259:133 0.00223967
17 *259:129 0.000454999
18 *259:125 0.00252761
19 *259:102 0.00288373
20 *259:94 0.00261586
21 *259:92 0.00223869
22 *259:83 0.000152685
23 *259:47 0.00244354
24 *259:24 0.00279565
25 *259:18 0.00117364
26 *259:14 0.00121608
27 *259:4 0.000545813
28 *1560:B1 *1571:B 5.58657e-05
29 *1560:B1 *275:10 0
30 *1575:B1 *381:48 0.000181125
31 *1616:B1 *1616:A1 5.3304e-05
32 *1616:B1 *1616:C1 5.50049e-05
33 *1648:A2 *1648:B2 1.31902e-05
34 *1648:A2 *383:137 3.39129e-06
35 *1650:A2 *1650:B1 0.000279219
36 *1650:A2 *314:52 8.17328e-05
37 *1650:A2 *490:20 0.000360952
38 *1654:A2 *1652:B2 0.000150872
39 *1654:A2 *1654:A1 0.000413084
40 *1654:A2 *314:65 0.000124282
41 *1654:A2 *314:73 1.63599e-05
42 *1654:A2 *338:26 0.000135616
43 *259:14 *278:111 0.000113141
44 *259:14 *381:56 0.000786627
45 *259:18 *1561:A1 0.000323913
46 *259:18 *278:20 5.14826e-05
47 *259:18 *278:111 0.000642302
48 *259:18 *381:56 0.000352656
49 *259:24 *278:10 9.2195e-05
50 *259:24 *381:48 0.00129564
51 *259:47 *349:16 0.000455519
52 *259:47 *349:41 0.00113085
53 *259:47 *359:95 2.24182e-05
54 *259:47 *462:42 0
55 *259:83 *1534:A1 4.02943e-05
56 *259:83 *390:113 8.64543e-05
57 *259:94 *1590:A1 7.70737e-05
58 *259:94 *1598:A1 1.88972e-05
59 *259:94 *1599:B1 0
60 *259:94 *263:100 0
61 *259:94 *263:106 0
62 *259:94 *278:111 0
63 *259:94 *278:113 0
64 *259:94 *278:121 0
65 *259:94 *307:21 0.000274553
66 *259:94 *308:10 3.90425e-05
67 *259:94 *308:18 4.77554e-05
68 *259:94 *308:26 0.000110983
69 *259:94 *309:10 0
70 *259:94 *315:10 4.08641e-05
71 *259:94 *360:72 1.02561e-05
72 *259:94 *360:87 0
73 *259:94 *408:16 0.000207347
74 *259:94 *472:18 5.32275e-05
75 *259:94 *472:54 0.000136463
76 *259:94 *493:27 8.05181e-05
77 *259:102 *1604:B1 3.41998e-06
78 *259:102 *385:102 0.000149358
79 *259:125 *1604:B1 0.000863692
80 *259:125 *303:16 0.00165081
81 *259:125 *383:137 3.3226e-05
82 *259:125 *388:18 1.57519e-05
83 *259:125 *492:48 0
84 *259:129 *383:137 1.59912e-05
85 *259:129 *388:14 5.0302e-05
86 *259:133 *1648:B2 2.97534e-05
87 *259:133 *388:14 6.35709e-06
88 *259:133 *402:18 8.3967e-05
89 *259:135 *1640:A1 0.000195379
90 *259:135 *1799:CLK 0.000100754
91 *259:135 *359:32 0.00010109
92 *259:135 *402:18 1.35714e-05
93 *259:135 *477:12 0.000377431
94 *259:141 *1626:A1 4.24709e-05
95 *259:141 *1652:B2 1.0092e-05
96 *259:141 *314:48 5.14006e-05
97 *259:141 *338:26 0.000149193
98 *259:167 *387:29 0.000163256
99 *259:167 *490:20 5.82853e-05
100 *259:180 *1656:B2 0
101 *259:180 *1657:A3 8.20563e-05
102 *259:180 *266:28 0.000302633
103 *259:180 *303:47 1.72791e-05
104 *259:180 *314:86 0.000160983
105 *259:180 *397:18 2.33476e-05
106 *259:180 *486:18 5.50049e-05
107 *259:180 *486:33 0
108 *259:180 *487:53 5.67058e-05
109 *1440:A *259:125 1.12695e-05
110 *1461:A *259:125 5.79489e-05
111 *1479:B1 *259:94 0.000123439
112 *1510:A1 *1604:C1 5.67058e-05
113 *1533:A *259:14 5.3304e-05
114 *1592:A1 *259:94 7.75819e-05
115 *1592:A2 *259:94 6.5117e-06
116 *1597:A2 *259:102 9.90628e-05
117 *1616:A2 *1616:B1 0.000121278
118 *1799:D *259:135 1.09834e-05
119 *66:10 *1654:A2 0.000161121
120 *118:10 *259:180 3.45871e-05
121 *126:12 *259:135 0.000100836
122 *143:8 *1560:B1 1.3116e-05
123 *150:95 *259:125 0.000418022
124 *153:39 *1616:B1 0.000119046
125 *153:39 *259:47 5.15805e-05
126 *153:43 *1575:B1 5.3304e-05
127 *153:63 *1575:B1 0.000127821
128 *153:63 *259:24 0.000185434
129 *153:76 *259:24 0.00107917
130 *153:86 *1560:B1 0.000166399
131 *153:86 *259:24 0.000218056
132 *153:95 *259:24 2.18409e-05
133 *153:138 *259:83 2.93335e-05
134 *159:58 *259:47 1.38338e-05
135 *162:89 *259:14 8.57485e-05
136 *162:95 *259:14 0.000345252
137 *162:95 *259:18 0.000350746
138 *163:61 *259:167 1.84831e-05
139 *163:134 *259:94 0
140 *166:71 *259:125 0.000259017
141 *166:73 *259:125 0.000178773
142 *166:104 *259:125 0.000149507
143 *188:8 *259:125 0.000107909
144 *193:10 *259:102 1.05441e-05
145 *193:16 *259:94 1.97329e-05
146 *193:16 *259:102 0.00025813
147 *193:29 *259:102 2.18409e-05
148 *194:40 *259:94 0.000191166
149 *200:69 *259:47 2.26497e-05
150 *254:88 *259:47 5.35139e-05
151 *258:16 *259:94 0
*RES
1 *1533:X *259:4 23 
2 *259:4 *259:14 41.9729 
3 *259:14 *259:18 32.7729 
4 *259:18 *259:24 32.7521 
5 *259:24 *1575:B1 25.0507 
6 *259:24 *259:47 48.6814 
7 *259:47 *1616:B1 48.3511 
8 *259:18 *1560:B1 42.0186 
9 *259:14 *259:83 33.2314 
10 *259:83 *1534:B1 23 
11 *259:4 *259:92 16.0979 
12 *259:92 *259:94 42.4021 
13 *259:94 *259:102 40.0671 
14 *259:102 *1604:C1 38.6214 
15 *259:102 *259:125 43.3816 
16 *259:125 *259:129 17.0507 
17 *259:129 *259:133 4.32929 
18 *259:133 *259:135 20.155 
19 *259:135 *259:141 20.7379 
20 *259:141 *1654:A2 46.2443 
21 *259:141 *1650:A2 41.9564 
22 *259:135 *259:167 32.8793 
23 *259:167 *1652:A2 23 
24 *259:133 *259:180 40.9786 
25 *259:180 *1656:A2 23 
26 *259:129 *1648:A2 23.4971 
*END

*D_NET *260 0.0013077
*CONN
*I *1542:A1_N I *D sky130_fd_sc_hd__o2bb2ai_1
*I *1534:X O *D sky130_fd_sc_hd__o31a_1
*CAP
1 *1542:A1_N 0
2 *1534:X 0.000318022
3 *260:12 0.000318022
4 *260:12 *1542:A2_N 0.000163038
5 *260:12 *266:155 0.00036096
6 *260:12 *267:10 0.000147656
7 *260:12 *380:103 0
*RES
1 *1534:X *260:12 45.1879 
2 *260:12 *1542:A1_N 38 
*END

*D_NET *261 0.00176171
*CONN
*I *1536:B1 I *D sky130_fd_sc_hd__a21o_1
*I *1538:A3 I *D sky130_fd_sc_hd__a31oi_1
*I *1535:X O *D sky130_fd_sc_hd__xor2_1
*CAP
1 *1536:B1 3.6605e-05
2 *1538:A3 0
3 *1535:X 0.000403075
4 *261:18 0.000117845
5 *261:10 0.000557525
6 *261:10 *1535:A 3.39646e-05
7 *261:18 *266:155 0.000186813
8 *261:18 *483:36 1.03934e-05
9 *1526:A2 *261:10 5.3304e-05
10 *1526:B2 *1536:B1 4.00259e-06
11 *1526:B2 *261:10 1.67633e-05
12 *161:68 *261:10 4.31675e-05
13 *250:6 *261:18 5.3304e-05
14 *250:14 *261:10 2.93845e-05
15 *250:14 *261:18 0.000160554
16 *256:8 *261:18 5.50106e-05
*RES
1 *1535:X *261:10 28.5514 
2 *261:10 *261:18 33.2314 
3 *261:18 *1538:A3 23 
4 *261:10 *1536:B1 23.8493 
*END

*D_NET *262 6.69045e-05
*CONN
*I *1539:A I *D sky130_fd_sc_hd__nand2_1
*I *1536:X O *D sky130_fd_sc_hd__a21o_1
*CAP
1 *1539:A 3.34522e-05
2 *1536:X 3.34522e-05
*RES
1 *1536:X *1539:A 46.6214 
*END

*D_NET *263 0.0304363
*CONN
*I *1603:B1 I *D sky130_fd_sc_hd__a41o_1
*I *1599:B2 I *D sky130_fd_sc_hd__a2bb2o_1
*I *1598:B1 I *D sky130_fd_sc_hd__a31o_1
*I *1591:B1 I *D sky130_fd_sc_hd__a41oi_1
*I *1538:B1 I *D sky130_fd_sc_hd__a31oi_1
*I *1586:A2 I *D sky130_fd_sc_hd__a22oi_2
*I *1580:B1 I *D sky130_fd_sc_hd__a31o_1
*I *1585:B1 I *D sky130_fd_sc_hd__a21oi_1
*I *1645:A1_N I *D sky130_fd_sc_hd__a2bb2o_1
*I *1537:Y O *D sky130_fd_sc_hd__nor2_4
*CAP
1 *1603:B1 7.0562e-05
2 *1599:B2 0
3 *1598:B1 0
4 *1591:B1 2.32701e-05
5 *1538:B1 0
6 *1586:A2 2.1727e-05
7 *1580:B1 0
8 *1585:B1 0
9 *1645:A1_N 0.000809966
10 *1537:Y 0
11 *263:140 0.000375211
12 *263:130 0.000564867
13 *263:114 0.000907666
14 *263:106 0.00144105
15 *263:100 0.00125978
16 *263:92 0.00214879
17 *263:68 0.000480702
18 *263:57 0.000715666
19 *263:47 0.00136539
20 *263:43 0.00139424
21 *263:12 0.00252456
22 *263:4 0.00202932
23 *1586:A2 *1586:A1 0
24 *1586:A2 *491:43 0
25 *1591:B1 *400:34 5.3304e-05
26 *1603:B1 *1603:A4 2.18506e-05
27 *1645:A1_N *349:12 0.000100374
28 *1645:A1_N *383:44 2.5343e-05
29 *263:12 *314:25 0
30 *263:12 *486:68 0
31 *263:43 *314:25 4.38956e-05
32 *263:43 *339:53 0.000199242
33 *263:43 *349:26 2.26497e-05
34 *263:43 *389:16 4.74546e-05
35 *263:43 *468:53 0.000135616
36 *263:43 *469:89 0.000294834
37 *263:43 *473:8 3.55444e-05
38 *263:43 *491:43 5.12055e-06
39 *263:43 *491:55 0
40 *263:47 *1586:A1 3.7122e-06
41 *263:47 *473:8 3.53548e-05
42 *263:57 *1586:A1 0.000147388
43 *263:57 *1586:B1 2.93335e-05
44 *263:57 *305:16 5.50049e-05
45 *263:57 *383:25 0.00010981
46 *263:57 *389:36 2.93747e-05
47 *263:57 *473:8 7.44161e-06
48 *263:57 *473:77 1.94693e-05
49 *263:68 *298:21 0.000136905
50 *263:68 *300:8 0.000262428
51 *263:68 *303:127 8.79537e-05
52 *263:68 *306:8 3.70187e-05
53 *263:92 *1427:A 0.000266152
54 *263:92 *1504:A2 2.46906e-05
55 *263:92 *1603:A4 6.53382e-05
56 *263:92 *1608:C 9.70259e-06
57 *263:92 *476:57 3.18142e-05
58 *263:100 *1599:A1_N 5.90675e-06
59 *263:100 *308:26 0.000221184
60 *263:100 *317:10 7.37252e-05
61 *263:100 *317:18 0.000108762
62 *263:106 *308:26 5.26308e-05
63 *263:106 *309:10 5.93696e-05
64 *263:106 *317:10 8.06804e-06
65 *263:106 *472:47 0
66 *263:114 *1668:A1 0.000133439
67 *263:114 *278:113 0.000840498
68 *263:114 *278:121 0.000369832
69 *263:114 *312:10 0.000150022
70 *263:114 *390:42 0.000224605
71 *263:114 *472:47 0
72 *263:114 *483:26 8.91021e-05
73 *263:130 *1598:A2 9.41704e-05
74 *263:130 *1599:A1_N 3.22879e-05
75 *263:130 *1599:A2_N 0.000135037
76 *263:130 *317:10 8.06804e-06
77 *263:140 *1598:A1 0.000408821
78 *263:140 *1599:B1 1.01436e-05
79 *263:140 *307:21 2.95125e-05
80 *1504:A1 *263:92 1.90088e-05
81 *1504:A3 *263:92 0.000403984
82 *1511:A *263:106 5.67058e-05
83 *1511:B *263:100 0.000260395
84 *1511:C *263:100 0
85 *1537:A *263:92 6.53881e-05
86 *1537:B *263:92 5.40241e-05
87 *1592:B2 *263:114 8.0213e-05
88 *1601:B1 *263:100 0.000127478
89 *1603:A2 *1603:B1 5.50106e-05
90 *1603:A3 *1603:B1 0.000141052
91 *1603:A3 *263:100 0.000161882
92 *1647:B2 *263:43 3.01354e-05
93 *149:68 *263:68 0.000706823
94 *152:12 *263:92 0.000138047
95 *152:14 *263:92 4.96717e-05
96 *153:27 *263:43 0.000773961
97 *153:39 *263:43 0.00033558
98 *154:6 *263:92 0.00010655
99 *154:19 *263:92 0.000198186
100 *162:22 *263:114 0.000296413
101 *166:10 *263:92 0.000827462
102 *166:69 *263:92 0.000592261
103 *172:87 *263:92 5.46603e-06
104 *172:95 *263:92 0.000238287
105 *193:16 *263:100 0
106 *193:29 *263:140 0
107 *194:12 *263:106 1.69668e-05
108 *197:12 *263:106 0
109 *197:21 *1591:B1 5.3304e-05
110 *203:10 *263:106 0.000216494
111 *203:19 *263:106 5.33597e-05
112 *203:32 *263:106 0.000150977
113 *203:32 *263:114 2.60152e-05
114 *206:8 *263:106 0.000252835
115 *207:10 *263:43 8.57315e-05
116 *207:33 *263:43 6.39199e-05
117 *228:56 *263:100 0.000352785
118 *231:12 *263:92 0.000371317
119 *234:19 *263:100 9.44888e-05
120 *236:25 *263:100 7.76364e-06
121 *250:34 *263:114 0.000400403
122 *254:82 *263:68 0.000109262
123 *255:43 *263:92 5.3304e-05
124 *255:92 *263:68 0
125 *256:8 *263:114 0.000871356
126 *259:94 *263:100 0
127 *259:94 *263:106 0
*RES
1 *1537:Y *263:4 23 
2 *263:4 *263:12 24.502 
3 *263:12 *1645:A1_N 48.0944 
4 *263:12 *263:43 48.7582 
5 *263:43 *263:47 2.54786 
6 *263:47 *263:57 41.9314 
7 *263:57 *1585:B1 23 
8 *263:47 *263:68 42.1179 
9 *263:68 *1580:B1 23 
10 *263:43 *1586:A2 23.4971 
11 *263:4 *263:92 37.7621 
12 *263:92 *263:100 45.08 
13 *263:100 *263:106 26.8071 
14 *263:106 *263:114 45.16 
15 *263:114 *1538:B1 23 
16 *263:106 *1591:B1 38.6214 
17 *263:100 *263:130 3.48 
18 *263:130 *263:140 36.3593 
19 *263:140 *1598:B1 23 
20 *263:130 *1599:B2 23 
21 *263:92 *1603:B1 25.0507 
*END

*D_NET *264 0.00105937
*CONN
*I *1539:B I *D sky130_fd_sc_hd__nand2_1
*I *1538:Y O *D sky130_fd_sc_hd__a31oi_1
*CAP
1 *1539:B 0
2 *1538:Y 0.000391477
3 *264:10 0.000391477
4 *264:10 *266:155 0
5 *264:10 *483:26 5.3304e-05
6 *250:6 *264:10 0.000144211
7 *250:34 *264:10 2.02872e-05
8 *251:16 *264:10 5.86165e-05
*RES
1 *1538:Y *264:10 44.2143 
2 *264:10 *1539:B 38 
*END

*D_NET *265 0.00236199
*CONN
*I *1542:A2_N I *D sky130_fd_sc_hd__o2bb2ai_1
*I *1539:Y O *D sky130_fd_sc_hd__nand2_1
*CAP
1 *1542:A2_N 0.000486665
2 *1539:Y 0.000173775
3 *265:8 0.00066044
4 *1542:A2_N *267:10 0
5 *1542:A2_N *272:10 0
6 *1542:A2_N *460:10 0
7 *162:95 *1542:A2_N 8.36198e-05
8 *162:112 *1542:A2_N 9.56285e-05
9 *251:16 *1542:A2_N 0.000698827
10 *260:12 *1542:A2_N 0.000163038
*RES
1 *1539:Y *265:8 40.0507 
2 *265:8 *1542:A2_N 48.7093 
*END

*D_NET *266 0.0383828
*CONN
*I *1541:B I *D sky130_fd_sc_hd__or2_1
*I *1551:B I *D sky130_fd_sc_hd__or3_1
*I *1571:B I *D sky130_fd_sc_hd__or3b_1
*I *1661:A3 I *D sky130_fd_sc_hd__a31o_1
*I *1659:A3 I *D sky130_fd_sc_hd__a31o_1
*I *1649:A3 I *D sky130_fd_sc_hd__a31o_1
*I *1653:A3 I *D sky130_fd_sc_hd__a31o_1
*I *1655:A3 I *D sky130_fd_sc_hd__a31o_1
*I *1651:A3 I *D sky130_fd_sc_hd__a31o_1
*I *1657:A3 I *D sky130_fd_sc_hd__a31o_1
*I *1540:X O *D sky130_fd_sc_hd__clkbuf_4
*CAP
1 *1541:B 2.52923e-05
2 *1551:B 2.08895e-05
3 *1571:B 0.000777505
4 *1661:A3 1.71258e-05
5 *1659:A3 0
6 *1649:A3 0
7 *1653:A3 0
8 *1655:A3 0.00016706
9 *1651:A3 0.000396007
10 *1657:A3 0.000145555
11 *1540:X 4.28107e-05
12 *266:161 0.00115657
13 *266:155 0.00167415
14 *266:131 0.00253582
15 *266:123 0.00383834
16 *266:119 0.00338152
17 *266:79 0.000914121
18 *266:67 0.00128174
19 *266:59 0.00129507
20 *266:51 0.000454325
21 *266:28 0.00122438
22 *266:22 0.00283407
23 *266:6 0.00269344
24 *1571:B *1514:A 5.14826e-05
25 *1571:B *1572:A 4.68198e-05
26 *1571:B *1572:B 2.43338e-05
27 *1571:B *1841:A 0.000104578
28 *1571:B *463:23 0.00122907
29 *1571:B *463:29 0.000204151
30 *1651:A3 *1651:B1 0.000230604
31 *1651:A3 *1793:CLK 9.45591e-05
32 *1651:A3 *303:73 5.90155e-05
33 *1651:A3 *394:10 1.80023e-05
34 *1655:A3 *352:10 0
35 *1655:A3 *394:10 4.57776e-05
36 *1657:A3 *1648:B1 1.12695e-05
37 *1657:A3 *1649:B1 9.71428e-05
38 *1657:A3 *1657:A2 1.75562e-05
39 *1657:A3 *303:59 0
40 *1657:A3 *314:86 6.85548e-05
41 *1661:A3 *1661:B1 2.38465e-05
42 *266:22 *303:16 0
43 *266:22 *386:20 0
44 *266:22 *480:41 1.49333e-06
45 *266:28 *1648:B1 0.000411166
46 *266:28 *303:16 0
47 *266:28 *339:104 0.000402418
48 *266:28 *388:8 3.70319e-05
49 *266:28 *480:41 0
50 *266:28 *481:47 0
51 *266:28 *481:59 0
52 *266:28 *486:33 0
53 *266:28 *492:66 0
54 *266:51 *1649:B1 5.3304e-05
55 *266:51 *303:59 2.4754e-05
56 *266:51 *338:26 0.000179494
57 *266:59 *1687:S 0
58 *266:59 *1720:A 0.000129037
59 *266:59 *1834:A 0.000330781
60 *266:59 *1888:A 1.01436e-05
61 *266:59 *303:59 0.000312925
62 *266:59 *338:26 0.000583886
63 *266:59 *359:32 0
64 *266:59 *388:49 0
65 *266:59 *439:10 0
66 *266:67 *1777:CLK 0.000429979
67 *266:67 *314:73 1.02949e-05
68 *266:67 *382:82 0.000202459
69 *266:67 *383:78 0
70 *266:79 *303:73 0.000411328
71 *266:79 *394:10 1.09886e-05
72 *266:79 *487:14 8.7705e-05
73 *266:79 *487:39 0.000141954
74 *266:119 *303:16 0
75 *266:119 *479:22 0.000147141
76 *266:119 *482:50 0.000292865
77 *266:119 *482:91 0.000257253
78 *266:119 *482:104 7.73662e-05
79 *266:123 *350:20 0
80 *266:123 *357:14 0.000113473
81 *266:123 *386:50 0
82 *266:131 *303:145 0.000179132
83 *266:131 *350:20 0
84 *266:131 *357:14 0.000323815
85 *266:131 *385:45 0.000181496
86 *266:131 *386:64 0
87 *266:155 *1534:A1 7.11824e-06
88 *266:155 *1535:A 0
89 *266:155 *381:54 0.000240708
90 *266:155 *390:10 0.000404661
91 *266:155 *479:22 0.000105073
92 *266:155 *483:36 4.10652e-05
93 *266:161 *464:27 9.66585e-05
94 *1449:A1 *266:119 3.22879e-05
95 *1534:A2 *266:155 1.83107e-05
96 *1541:A *266:155 1.59094e-05
97 *1551:A *1571:B 0.000100486
98 *1551:A *266:161 4.21921e-05
99 *1551:C *266:161 7.15579e-05
100 *1560:A2 *1571:B 2.97099e-05
101 *1560:B1 *1571:B 5.58657e-05
102 *1793:D *1651:A3 3.22879e-05
103 *1793:RESET_B *266:79 4.70852e-05
104 *118:10 *1657:A3 5.50049e-05
105 *118:10 *266:51 2.07242e-05
106 *119:10 *1651:A3 1.09886e-05
107 *119:10 *1655:A3 5.34044e-05
108 *142:10 *1571:B 8.08187e-06
109 *148:12 *266:28 0.000336139
110 *149:68 *266:131 8.16944e-06
111 *149:104 *1571:B 1.46594e-05
112 *149:126 *266:155 0.000170277
113 *153:86 *1571:B 9.09342e-06
114 *161:60 *266:155 0.000851522
115 *161:86 *266:155 6.7177e-06
116 *162:36 *266:123 0
117 *162:126 *1571:B 0.000884022
118 *162:151 *1571:B 6.17437e-06
119 *163:49 *266:131 0
120 *170:31 *266:28 1.44813e-05
121 *170:50 *266:22 0
122 *170:50 *266:28 0
123 *170:99 *266:28 2.50227e-05
124 *172:95 *266:28 0
125 *173:83 *266:119 0.000198564
126 *173:83 *266:155 0.000127015
127 *174:10 *266:22 2.82105e-05
128 *189:10 *266:28 2.79004e-05
129 *191:8 *266:28 0
130 *193:71 *266:119 1.7387e-05
131 *198:8 *266:119 8.85189e-05
132 *238:6 *266:6 1.57322e-05
133 *238:6 *266:119 8.04797e-05
134 *238:10 *1661:A3 5.03902e-05
135 *246:8 *266:161 2.60063e-05
136 *250:14 *266:155 2.95125e-05
137 *251:16 *266:155 0
138 *252:8 *266:155 0
139 *256:21 *266:155 0
140 *256:38 *266:119 0.000205224
141 *256:38 *266:155 0.000193702
142 *259:180 *1657:A3 8.20563e-05
143 *259:180 *266:28 0.000302633
144 *260:12 *266:155 0.00036096
145 *261:18 *266:155 0.000186813
146 *264:10 *266:155 0
*RES
1 *1540:X *266:6 23.6214 
2 *266:6 *266:22 43.358 
3 *266:22 *266:28 30.4232 
4 *266:28 *1657:A3 41.4179 
5 *266:28 *266:51 17.6929 
6 *266:51 *266:59 41.4136 
7 *266:59 *266:67 44.4379 
8 *266:67 *266:79 23.8761 
9 *266:79 *1651:A3 46.8139 
10 *266:79 *1655:A3 41.0554 
11 *266:67 *1653:A3 23 
12 *266:51 *1649:A3 23 
13 *266:6 *266:119 32.6589 
14 *266:119 *266:123 10.8037 
15 *266:123 *266:131 30.2126 
16 *266:131 *1659:A3 23 
17 *266:123 *1661:A3 46.6732 
18 *266:119 *266:155 47.7182 
19 *266:155 *266:161 6.98071 
20 *266:161 *1571:B 46.5107 
21 *266:161 *1551:B 23.4971 
22 *266:155 *1541:B 23.4971 
*END

*D_NET *267 0.000641575
*CONN
*I *1542:B1 I *D sky130_fd_sc_hd__o2bb2ai_1
*I *1541:X O *D sky130_fd_sc_hd__or2_1
*CAP
1 *1542:B1 0
2 *1541:X 0.000246959
3 *267:10 0.000246959
4 *1542:A2_N *267:10 0
5 *260:12 *267:10 0.000147656
*RES
1 *1541:X *267:10 41.8321 
2 *267:10 *1542:B1 38 
*END

*D_NET *268 0.00118547
*CONN
*I *1544:B1_N I *D sky130_fd_sc_hd__o21bai_2
*I *1543:Y O *D sky130_fd_sc_hd__nand2_1
*CAP
1 *1544:B1_N 0
2 *1543:Y 0.000399105
3 *268:8 0.000399105
4 *268:8 *269:10 5.3304e-05
5 *1520:A1 *268:8 5.67058e-05
6 *1543:B *268:8 9.84851e-05
7 *165:29 *268:8 0.00013961
8 *200:82 *268:8 1.7316e-05
9 *246:26 *268:8 2.18409e-05
*RES
1 *1543:Y *268:8 30.3121 
2 *268:8 *1544:B1_N 23 
*END

*D_NET *269 0.0034966
*CONN
*I *1547:C1 I *D sky130_fd_sc_hd__o211ai_1
*I *1545:A2 I *D sky130_fd_sc_hd__a21oi_1
*I *1559:B1 I *D sky130_fd_sc_hd__a22o_1
*I *1544:Y O *D sky130_fd_sc_hd__o21bai_2
*CAP
1 *1547:C1 0.000148632
2 *1545:A2 0
3 *1559:B1 0.000178535
4 *1544:Y 0.000181842
5 *269:31 0.000573093
6 *269:12 0.000602997
7 *269:10 0.000181842
8 *1547:C1 *270:10 0.000184527
9 *269:10 *384:122 2.05503e-05
10 *269:10 *389:157 0
11 *269:31 *274:10 0.000219287
12 *1523:A2 *269:10 7.8403e-05
13 *1523:A2 *269:31 8.1796e-05
14 *1545:A1 *269:31 1.02219e-05
15 *1545:B1 *1547:C1 3.04642e-05
16 *165:8 *1559:B1 1.61361e-05
17 *165:10 *269:10 6.16643e-05
18 *165:29 *269:10 5.50049e-05
19 *165:39 *269:31 1.22822e-05
20 *173:125 *1559:B1 6.11077e-05
21 *245:16 *1547:C1 0.000110595
22 *245:33 *269:31 0.000162818
23 *246:16 *269:31 1.37349e-05
24 *249:8 *269:31 9.8971e-06
25 *250:6 *269:31 0.000355822
26 *254:99 *1559:B1 7.1535e-05
27 *254:99 *269:10 1.44014e-05
28 *254:111 *269:10 6.10551e-06
29 *268:8 *269:10 5.3304e-05
*RES
1 *1544:Y *269:10 41.9357 
2 *269:10 *269:12 15 
3 *269:12 *1559:B1 26.5214 
4 *269:12 *269:31 39.9014 
5 *269:31 *1545:A2 23 
6 *269:31 *1547:C1 26.9979 
*END

*D_NET *270 0.000969116
*CONN
*I *1550:A1 I *D sky130_fd_sc_hd__o21bai_1
*I *1545:Y O *D sky130_fd_sc_hd__a21oi_1
*CAP
1 *1550:A1 0
2 *1545:Y 0.00027268
3 *270:10 0.00027268
4 *1545:A1 *270:10 2.51385e-05
5 *1545:B1 *270:10 8.48502e-06
6 *1547:C1 *270:10 0.000184527
7 *245:12 *270:10 0.000138727
8 *246:10 *270:10 6.68793e-05
*RES
1 *1545:Y *270:10 42.8782 
2 *270:10 *1550:A1 38 
*END

*D_NET *271 0.00194456
*CONN
*I *1547:A2 I *D sky130_fd_sc_hd__o211ai_1
*I *1546:X O *D sky130_fd_sc_hd__a31o_1
*CAP
1 *1547:A2 0
2 *1546:X 0.000569653
3 *271:10 0.000569653
4 *271:10 *460:10 0
5 *271:10 *483:111 1.19727e-05
6 *1521:A2 *271:10 8.62876e-05
7 *1521:A3 *271:10 8.85189e-05
8 *151:89 *271:10 9.58714e-05
9 *246:16 *271:10 0.000522606
10 *248:17 *271:10 0
*RES
1 *1546:X *271:10 48.7507 
2 *271:10 *1547:A2 38 
*END

*D_NET *272 0.000499612
*CONN
*I *1548:B1 I *D sky130_fd_sc_hd__o21ai_1
*I *1547:Y O *D sky130_fd_sc_hd__o211ai_1
*CAP
1 *1548:B1 0
2 *1547:Y 0.000169246
3 *272:10 0.000169246
4 *272:10 *460:10 0.000161121
5 *1542:A2_N *272:10 0
*RES
1 *1547:Y *272:10 40.8793 
2 *272:10 *1548:B1 38 
*END

*D_NET *273 0.000607596
*CONN
*I *1550:A2 I *D sky130_fd_sc_hd__o21bai_1
*I *1548:Y O *D sky130_fd_sc_hd__o21ai_1
*CAP
1 *1550:A2 0.000114693
2 *1548:Y 0.000114693
3 *1550:A2 *381:48 6.53382e-05
4 *1548:A1 *1550:A2 9.67842e-05
5 *153:95 *1550:A2 0.000182832
6 *153:104 *1550:A2 3.32563e-05
*RES
1 *1548:Y *1550:A2 49.5214 
*END

*D_NET *274 0.00172421
*CONN
*I *1550:B1_N I *D sky130_fd_sc_hd__o21bai_1
*I *1549:X O *D sky130_fd_sc_hd__a31o_1
*CAP
1 *1550:B1_N 0
2 *1549:X 0.000538444
3 *274:10 0.000538444
4 *274:10 *278:10 0
5 *1545:A1 *274:10 0.000166513
6 *246:10 *274:10 5.65824e-05
7 *250:6 *274:10 0.000204939
8 *269:31 *274:10 0.000219287
*RES
1 *1549:X *274:10 47.6321 
2 *274:10 *1550:B1_N 38 
*END

*D_NET *275 0.00148316
*CONN
*I *1552:A I *D sky130_fd_sc_hd__nand2_1
*I *1550:Y O *D sky130_fd_sc_hd__o21bai_1
*CAP
1 *1552:A 0
2 *1550:Y 0.000526407
3 *275:10 0.000526407
4 *275:10 *1841:A 0
5 *275:10 *276:8 3.56295e-05
6 *275:10 *278:10 0
7 *275:10 *380:75 4.77164e-06
8 *275:10 *445:8 4.11274e-05
9 *275:10 *464:27 0
10 *1551:A *275:10 3.87221e-06
11 *1551:C *275:10 2.15318e-05
12 *1560:B1 *275:10 0
13 *144:8 *275:10 8.6533e-05
14 *153:95 *275:10 9.84794e-05
15 *245:12 *275:10 0
16 *246:10 *275:10 0.0001384
*RES
1 *1550:Y *275:10 46.99 
2 *275:10 *1552:A 38 
*END

*D_NET *276 0.000819185
*CONN
*I *1552:B I *D sky130_fd_sc_hd__nand2_1
*I *1551:X O *D sky130_fd_sc_hd__or3_1
*CAP
1 *1552:B 9.48366e-05
2 *1551:X 8.42591e-05
3 *276:8 0.000179096
4 *1552:B *380:69 5.5792e-05
5 *276:8 *464:27 1.22217e-05
6 *1817:RESET_B *1552:B 9.06073e-05
7 *161:98 *1552:B 0.000225616
8 *245:12 *276:8 4.11274e-05
9 *275:10 *276:8 3.56295e-05
*RES
1 *1551:X *276:8 39.9057 
2 *276:8 *1552:B 41.0243 
*END

*D_NET *277 0.00288845
*CONN
*I *1596:A I *D sky130_fd_sc_hd__clkbuf_4
*I *1658:B1 I *D sky130_fd_sc_hd__a22o_1
*I *1660:B1 I *D sky130_fd_sc_hd__a22o_1
*I *1554:A I *D sky130_fd_sc_hd__clkbuf_4
*I *1553:Y O *D sky130_fd_sc_hd__nor2_1
*CAP
1 *1596:A 0
2 *1658:B1 0.00015845
3 *1660:B1 4.78372e-05
4 *1554:A 0
5 *1553:Y 9.78425e-05
6 *277:43 0.000150416
7 *277:17 0.000498843
8 *277:6 0.000540815
9 *1658:B1 *357:14 4.30894e-05
10 *1658:B1 *486:68 0.000201018
11 *1660:B1 *357:14 5.56279e-05
12 *1660:B1 *485:32 3.70435e-05
13 *277:6 *1553:B 2.93747e-05
14 *277:17 *486:68 0.000187094
15 *277:43 *278:10 0
16 *277:43 *383:171 0
17 *1553:A *277:6 0.00026808
18 *1553:A *277:17 0.000136738
19 *150:20 *277:17 0.000163178
20 *163:18 *277:17 0
21 *238:10 *277:43 0.000273005
*RES
1 *1553:Y *277:6 26.0036 
2 *277:6 *1554:A 23 
3 *277:6 *277:17 20.6136 
4 *277:17 *1660:B1 39.1186 
5 *277:17 *1658:B1 40.9621 
6 *277:6 *277:43 33.6664 
7 *277:43 *1596:A 23 
*END

*D_NET *278 0.0352586
*CONN
*I *1706:B1 I *D sky130_fd_sc_hd__a21oi_1
*I *1595:A2 I *D sky130_fd_sc_hd__a22o_1
*I *1705:A2 I *D sky130_fd_sc_hd__a21bo_1
*I *1696:B1 I *D sky130_fd_sc_hd__a22o_1
*I *1605:A2 I *D sky130_fd_sc_hd__a21o_1
*I *1561:A2 I *D sky130_fd_sc_hd__a22o_1
*I *1583:A2_N I *D sky130_fd_sc_hd__o2bb2ai_1
*I *1587:B1 I *D sky130_fd_sc_hd__a2bb2o_1
*I *1617:A2 I *D sky130_fd_sc_hd__a21bo_1
*I *1576:A2 I *D sky130_fd_sc_hd__a22o_1
*I *1554:X O *D sky130_fd_sc_hd__clkbuf_4
*CAP
1 *1706:B1 1.80505e-05
2 *1595:A2 2.77218e-05
3 *1705:A2 7.54971e-05
4 *1696:B1 0
5 *1605:A2 0.000228901
6 *1561:A2 0
7 *1583:A2_N 0
8 *1587:B1 0
9 *1617:A2 0
10 *1576:A2 0
11 *1554:X 0
12 *278:125 0.00047382
13 *278:123 0.000744001
14 *278:121 0.00117387
15 *278:113 0.00153254
16 *278:111 0.00194311
17 *278:81 0.000735869
18 *278:71 0.000784125
19 *278:69 0.000706835
20 *278:61 0.000752836
21 *278:57 0.00111741
22 *278:42 0.00130149
23 *278:28 0.00139912
24 *278:20 0.00134498
25 *278:10 0.00277171
26 *278:6 0.00137697
27 *1595:A2 *1595:A1 2.64616e-05
28 *1595:A2 *1812:CLK 5.3304e-05
29 *1605:A2 *1605:B1 0.000133803
30 *1605:A2 *321:21 6.50772e-05
31 *1605:A2 *359:18 9.17924e-05
32 *1605:A2 *432:8 8.85189e-05
33 *1705:A2 *377:18 0.000182832
34 *1705:A2 *430:8 2.93845e-05
35 *1706:B1 *1771:CLK 2.93747e-05
36 *278:10 *1661:B1 3.97479e-05
37 *278:10 *1825:A 1.91026e-05
38 *278:10 *283:8 0
39 *278:10 *383:171 0.000465984
40 *278:20 *1561:A1 0.000147554
41 *278:28 *283:8 0.000144984
42 *278:28 *381:48 0.00129918
43 *278:42 *1576:A1 7.61466e-05
44 *278:42 *1576:B2 0
45 *278:42 *288:25 8.4047e-05
46 *278:42 *296:10 8.33761e-05
47 *278:57 *296:10 5.3304e-05
48 *278:57 *462:23 7.20415e-05
49 *278:57 *474:21 0.000174996
50 *278:57 *474:57 8.56254e-05
51 *278:57 *491:65 0.000707878
52 *278:61 *391:14 0.000126343
53 *278:61 *392:22 0
54 *278:69 *1583:B2 0
55 *278:69 *1667:A2 5.67058e-05
56 *278:69 *306:12 0.000180218
57 *278:69 *385:45 0.000243885
58 *278:69 *385:51 0.000207427
59 *278:69 *391:14 0.00122657
60 *278:69 *392:22 0
61 *278:71 *303:145 5.94125e-05
62 *278:71 *383:31 2.11887e-05
63 *278:71 *385:51 4.99753e-06
64 *278:71 *409:29 1.14452e-05
65 *278:81 *1754:A 5.58003e-05
66 *278:81 *383:44 0
67 *278:81 *385:51 8.47627e-05
68 *278:81 *409:29 0.000484273
69 *278:81 *429:6 9.41704e-05
70 *278:81 *468:12 0.000259637
71 *278:81 *481:31 0.000125092
72 *278:111 *381:56 0.00112642
73 *278:111 *466:14 0.000228233
74 *278:111 *466:18 0.000529551
75 *278:113 *408:16 0
76 *278:121 *1593:B 2.1819e-05
77 *278:121 *312:10 0.000449833
78 *278:121 *408:16 0
79 *278:121 *472:24 0.00036685
80 *278:123 *359:18 0.000350514
81 *278:125 *321:21 6.81663e-06
82 *278:125 *359:18 0.000211391
83 *1437:C1 *1706:B1 5.50049e-05
84 *1517:A1 *278:10 0
85 *1520:A1 *278:10 0.000110366
86 *1522:B *278:10 0.000198518
87 *1545:A1 *278:10 0
88 *1557:A2 *278:10 0.000162809
89 *149:70 *278:42 4.08641e-05
90 *150:95 *1605:A2 1.05441e-05
91 *150:95 *278:125 2.26406e-05
92 *153:86 *278:28 0
93 *159:41 *278:10 5.49607e-05
94 *162:22 *278:113 4.80714e-05
95 *162:36 *278:10 2.14518e-05
96 *162:89 *278:111 5.5383e-05
97 *162:89 *278:113 6.95768e-05
98 *163:134 *278:111 8.85189e-05
99 *163:167 *278:123 0.0010819
100 *163:167 *278:125 0.000678488
101 *165:39 *278:10 4.23717e-05
102 *173:125 *278:42 0
103 *238:10 *278:10 0
104 *244:10 *278:10 0
105 *246:10 *278:10 0
106 *247:19 *278:10 5.46706e-05
107 *254:82 *278:57 0.000555971
108 *256:59 *278:121 0.000320097
109 *256:68 *278:121 0.000226896
110 *257:10 *278:121 5.3304e-05
111 *259:14 *278:111 0.000113141
112 *259:18 *278:20 5.14826e-05
113 *259:18 *278:111 0.000642302
114 *259:24 *278:10 9.2195e-05
115 *259:94 *278:111 0
116 *259:94 *278:113 0
117 *259:94 *278:121 0
118 *263:114 *278:113 0.000840498
119 *263:114 *278:121 0.000369832
120 *274:10 *278:10 0
121 *275:10 *278:10 0
122 *277:43 *278:10 0
*RES
1 *1554:X *278:6 38 
2 *278:6 *278:10 42.6121 
3 *278:10 *278:20 4.76429 
4 *278:20 *278:28 48.4564 
5 *278:28 *278:42 35.3443 
6 *278:42 *1576:A2 23 
7 *278:42 *278:57 49.9479 
8 *278:57 *278:61 16.9057 
9 *278:61 *278:69 48.8707 
10 *278:69 *278:71 1.20143 
11 *278:71 *278:81 32.0479 
12 *278:81 *1617:A2 23 
13 *278:71 *1587:B1 38 
14 *278:61 *1583:A2_N 38 
15 *278:20 *1561:A2 23 
16 *278:10 *278:111 43.3579 
17 *278:111 *278:113 16.6957 
18 *278:113 *278:121 48.0836 
19 *278:121 *278:123 14.5829 
20 *278:123 *278:125 9.30071 
21 *278:125 *1605:A2 43.4271 
22 *278:125 *1696:B1 38 
23 *278:123 *1705:A2 40.0507 
24 *278:113 *1595:A2 38.6214 
25 *278:111 *1706:B1 38.6214 
*END

*D_NET *279 0.0101157
*CONN
*I *1558:A1 I *D sky130_fd_sc_hd__a41o_1
*I *1573:A1 I *D sky130_fd_sc_hd__a211o_1
*I *1584:B I *D sky130_fd_sc_hd__or2_1
*I *1585:A1 I *D sky130_fd_sc_hd__a21oi_1
*I *1578:A I *D sky130_fd_sc_hd__nand2_1
*I *1555:Y O *D sky130_fd_sc_hd__nand2_2
*CAP
1 *1558:A1 0.00010584
2 *1573:A1 1.08577e-05
3 *1584:B 0
4 *1585:A1 0
5 *1578:A 4.19956e-05
6 *1555:Y 0.000197208
7 *279:63 0.000643827
8 *279:55 0.000976021
9 *279:49 0.000667176
10 *279:31 0.000278408
11 *279:23 0.000399951
12 *279:8 0.000518572
13 *279:6 0.000982206
14 *1558:A1 *1558:B1 5.56279e-05
15 *1573:A1 *286:16 2.08774e-05
16 *1573:A1 *288:10 1.03641e-05
17 *1578:A *299:6 1.84831e-05
18 *1578:A *356:8 5.5792e-05
19 *279:6 *1658:B2 8.76309e-05
20 *279:6 *356:8 0.000515872
21 *279:6 *485:22 0.000186856
22 *279:8 *1579:A2 6.37432e-05
23 *279:8 *299:6 6.49425e-05
24 *279:8 *356:8 0.00111266
25 *279:8 *485:22 0.000572744
26 *279:23 *474:25 9.42599e-05
27 *279:31 *383:25 0
28 *279:31 *485:16 8.87497e-05
29 *279:49 *384:122 0
30 *279:49 *389:10 0
31 *279:49 *389:157 5.94125e-05
32 *1436:A *279:6 8.70841e-05
33 *1512:B *279:23 1.0092e-05
34 *1513:B *279:23 0.000198286
35 *1516:C *1558:A1 0.00013449
36 *1516:C *279:55 2.94154e-05
37 *1516:C *279:63 2.47702e-05
38 *1516:D *279:63 0.000199945
39 *1558:A4 *1558:A1 5.56279e-05
40 *153:39 *279:63 7.48497e-05
41 *159:41 *279:49 4.67488e-05
42 *161:20 *279:8 3.78835e-05
43 *162:36 *279:6 6.10741e-05
44 *162:38 *279:6 2.02872e-05
45 *163:111 *279:6 0.000205612
46 *200:54 *279:49 9.64943e-05
47 *205:18 *279:6 4.46854e-05
48 *205:24 *279:6 0.000102971
49 *239:21 *279:31 5.01559e-05
50 *239:49 *279:49 0
51 *239:70 *279:49 0.000182261
52 *239:70 *279:55 0.000213311
53 *240:46 *279:8 9.79925e-05
54 *243:10 *279:63 0.000311537
*RES
1 *1555:Y *279:6 31.2443 
2 *279:6 *279:8 12.5321 
3 *279:8 *1578:A 24.1186 
4 *279:8 *279:23 32.9621 
5 *279:23 *279:31 35.2614 
6 *279:31 *1585:A1 23 
7 *279:23 *1584:B 23 
8 *279:6 *279:49 36.8771 
9 *279:49 *279:55 19.64 
10 *279:55 *279:63 39.0729 
11 *279:63 *1573:A1 38.2434 
12 *279:55 *1558:A1 40.5271 
*END

*D_NET *280 0.00399924
*CONN
*I *1564:B1_N I *D sky130_fd_sc_hd__a21boi_1
*I *1558:A2 I *D sky130_fd_sc_hd__a41o_1
*I *1573:A2 I *D sky130_fd_sc_hd__a211o_1
*I *1556:X O *D sky130_fd_sc_hd__and2_1
*CAP
1 *1564:B1_N 7.85767e-05
2 *1558:A2 0.00014385
3 *1573:A2 0.000441609
4 *1556:X 0
5 *280:12 0.0010939
6 *280:4 0.000587022
7 *1564:B1_N *287:8 0.000228723
8 *1564:B1_N *385:92 5.76874e-05
9 *1573:A2 *1565:A1 2.02872e-05
10 *1573:A2 *1565:A2 7.4416e-05
11 *1573:A2 *286:16 0.000191134
12 *280:12 *1565:A2 0.000572806
13 *280:12 *282:8 1.00084e-05
14 *280:12 *287:8 0.000100069
15 *280:12 *349:41 2.19562e-05
16 *280:12 *389:10 1.42125e-05
17 *1556:B *280:12 1.3523e-05
18 *1558:A4 *1558:A2 0.000233367
19 *239:70 *1564:B1_N 5.32012e-05
20 *239:70 *280:12 3.18142e-05
21 *241:12 *280:12 0
22 *242:29 *1573:A2 3.10777e-05
*RES
1 *1556:X *280:4 23 
2 *280:4 *280:12 40.0464 
3 *280:12 *1573:A2 29.235 
4 *280:12 *1558:A2 26.5214 
5 *280:4 *1564:B1_N 26.0243 
*END

*D_NET *281 0.000968645
*CONN
*I *1558:B1 I *D sky130_fd_sc_hd__a41o_1
*I *1557:X O *D sky130_fd_sc_hd__a21o_1
*CAP
1 *1558:B1 0.000269938
2 *1557:X 7.11664e-05
3 *281:8 0.000341104
4 *281:8 *389:157 0
5 *1558:A1 *1558:B1 5.56279e-05
6 *1558:A3 *1558:B1 5.3304e-05
7 *1558:A4 *1558:B1 6.19722e-05
8 *173:105 *281:8 0.000112294
9 *242:29 *1558:B1 3.23857e-06
*RES
1 *1557:X *281:8 39.5536 
2 *281:8 *1558:B1 42.4536 
*END

*D_NET *282 0.000826745
*CONN
*I *1559:B2 I *D sky130_fd_sc_hd__a22o_1
*I *1558:X O *D sky130_fd_sc_hd__a41o_1
*CAP
1 *1559:B2 0.000128688
2 *1558:X 0.000101771
3 *282:8 0.000230459
4 *282:8 *349:41 3.53893e-05
5 *282:8 *463:55 6.07611e-06
6 *165:8 *1559:B2 0.000192068
7 *254:99 *1559:B2 0.000122286
8 *280:12 *282:8 1.00084e-05
*RES
1 *1558:X *282:8 39.9057 
2 *282:8 *1559:B2 41.9564 
*END

*D_NET *283 0.000954911
*CONN
*I *1561:B1 I *D sky130_fd_sc_hd__a22o_1
*I *1559:X O *D sky130_fd_sc_hd__a22o_1
*CAP
1 *1561:B1 0
2 *1559:X 0.000402823
3 *283:8 0.000402823
4 *283:8 *389:157 0
5 *254:99 *283:8 4.2812e-06
6 *278:10 *283:8 0
7 *278:28 *283:8 0.000144984
*RES
1 *1559:X *283:8 45.8921 
2 *283:8 *1561:B1 38 
*END

*D_NET *284 0.000415822
*CONN
*I *1561:B2 I *D sky130_fd_sc_hd__a22o_1
*I *1560:X O *D sky130_fd_sc_hd__o31a_1
*CAP
1 *1561:B2 0.000130726
2 *1560:X 7.54306e-05
3 *284:8 0.000206157
4 *149:118 *284:8 3.50862e-06
*RES
1 *1560:X *284:8 39.2014 
2 *284:8 *1561:B2 39.9471 
*END

*D_NET *285 0.00201316
*CONN
*I *1566:A1 I *D sky130_fd_sc_hd__a21oi_1
*I *1567:C I *D sky130_fd_sc_hd__nand3_1
*I *1562:X O *D sky130_fd_sc_hd__or3b_1
*CAP
1 *1566:A1 0.000178559
2 *1567:C 0
3 *1562:X 0.000289873
4 *285:12 0.000203884
5 *285:8 0.000315199
6 *1566:A1 *288:25 5.82853e-05
7 *1566:A1 *288:42 0.00036991
8 *1566:A1 *290:8 9.87506e-05
9 *285:8 *463:55 0.000363755
10 *285:12 *288:42 2.02872e-05
11 *285:12 *290:8 5.3304e-05
12 *1567:B *1566:A1 5.55743e-06
13 *1569:B1 *1566:A1 5.58003e-05
*RES
1 *1562:X *285:8 43.075 
2 *285:8 *285:12 15.6214 
3 *285:12 *1567:C 23 
4 *285:12 *1566:A1 27.93 
*END

*D_NET *286 0.00151138
*CONN
*I *1565:A1 I *D sky130_fd_sc_hd__o21ai_2
*I *1573:C1 I *D sky130_fd_sc_hd__a211o_1
*I *1563:X O *D sky130_fd_sc_hd__o21a_1
*CAP
1 *1565:A1 2.53257e-05
2 *1573:C1 0
3 *1563:X 0.000327166
4 *286:16 0.000352492
5 *286:16 *1563:A1 0.000221992
6 *286:16 *288:10 0.000112227
7 *286:16 *474:66 0.000109847
8 *1563:B1 *286:16 2.65505e-05
9 *1573:A1 *286:16 2.08774e-05
10 *1573:A2 *1565:A1 2.02872e-05
11 *1573:A2 *286:16 0.000191134
12 *242:29 *1565:A1 5.3304e-05
13 *242:29 *286:16 5.01814e-05
*RES
1 *1563:X *286:16 30.9957 
2 *286:16 *1573:C1 23 
3 *286:16 *1565:A1 23.6214 
*END

*D_NET *287 0.00296371
*CONN
*I *1565:A2 I *D sky130_fd_sc_hd__o21ai_2
*I *1564:Y O *D sky130_fd_sc_hd__a21boi_1
*CAP
1 *1565:A2 0.000287656
2 *1564:Y 0.000328511
3 *287:8 0.000616166
4 *1565:A2 *349:41 0.000407547
5 *1565:A2 *386:64 3.62181e-05
6 *1565:A2 *389:10 8.62783e-05
7 *287:8 *385:92 6.06973e-05
8 *1556:B *287:8 2.48995e-05
9 *1564:B1_N *287:8 0.000228723
10 *1573:A2 *1565:A2 7.4416e-05
11 *240:20 *1565:A2 3.7473e-07
12 *242:29 *1565:A2 0.000139346
13 *280:12 *1565:A2 0.000572806
14 *280:12 *287:8 0.000100069
*RES
1 *1564:Y *287:8 42.9093 
2 *287:8 *1565:A2 47.4664 
*END

*D_NET *288 0.00493652
*CONN
*I *1567:A I *D sky130_fd_sc_hd__nand3_1
*I *1566:A2 I *D sky130_fd_sc_hd__a21oi_1
*I *1574:B1 I *D sky130_fd_sc_hd__a22o_1
*I *1565:Y O *D sky130_fd_sc_hd__o21ai_2
*CAP
1 *1567:A 0
2 *1566:A2 0
3 *1574:B1 0
4 *1565:Y 0.000367671
5 *288:42 0.000416607
6 *288:25 0.000757979
7 *288:10 0.000709043
8 *288:10 *295:10 0.000104893
9 *288:10 *474:66 0.000302817
10 *288:25 *289:16 1.52311e-05
11 *288:25 *290:8 0.000102971
12 *288:42 *1569:A1 5.91105e-05
13 *288:42 *290:8 8.93708e-05
14 *288:42 *292:8 1.13812e-05
15 *1566:A1 *288:25 5.82853e-05
16 *1566:A1 *288:42 0.00036991
17 *1566:B1 *288:42 2.35439e-06
18 *1567:B *288:42 1.12349e-05
19 *1568:A1 *288:25 1.61983e-05
20 *1573:A1 *288:10 1.03641e-05
21 *149:70 *288:25 3.71694e-05
22 *149:85 *288:25 0
23 *153:39 *288:10 0.000469423
24 *153:39 *288:25 0.000215773
25 *153:51 *288:25 0.000136282
26 *161:20 *288:10 5.79427e-05
27 *161:33 *288:10 0.00018835
28 *241:40 *288:42 3.19833e-05
29 *242:29 *288:10 0.00017761
30 *278:42 *288:25 8.4047e-05
31 *285:12 *288:42 2.02872e-05
32 *286:16 *288:10 0.000112227
*RES
1 *1565:Y *288:10 48.44 
2 *288:10 *1574:B1 38 
3 *288:10 *288:25 22.4986 
4 *288:25 *1566:A2 23 
5 *288:25 *288:42 37.2293 
6 *288:42 *1567:A 23 
*END

*D_NET *289 0.00130039
*CONN
*I *1570:A1 I *D sky130_fd_sc_hd__o21ai_1
*I *1566:Y O *D sky130_fd_sc_hd__a21oi_1
*CAP
1 *1570:A1 0
2 *1566:Y 0.000328398
3 *289:16 0.000328398
4 *289:16 *290:8 1.57659e-05
5 *289:16 *291:10 0.000347435
6 *289:16 *462:19 0.000134408
7 *289:16 *491:65 0
8 *1566:B1 *289:16 0.000100477
9 *1568:A1 *289:16 1.35999e-05
10 *153:51 *289:16 6.63793e-06
11 *162:151 *289:16 1.00359e-05
12 *288:25 *289:16 1.52311e-05
*RES
1 *1566:Y *289:16 46.2961 
2 *289:16 *1570:A1 38 
*END

*D_NET *290 0.00122554
*CONN
*I *1568:B1 I *D sky130_fd_sc_hd__o21ai_1
*I *1567:Y O *D sky130_fd_sc_hd__nand3_1
*CAP
1 *1568:B1 0
2 *1567:Y 0.000190226
3 *290:8 0.000190226
4 *1566:A1 *290:8 9.87506e-05
5 *1566:B1 *290:8 0.000426641
6 *1569:B1 *290:8 5.82853e-05
7 *285:12 *290:8 5.3304e-05
8 *288:25 *290:8 0.000102971
9 *288:42 *290:8 8.93708e-05
10 *289:16 *290:8 1.57659e-05
*RES
1 *1567:Y *290:8 29.8357 
2 *290:8 *1568:B1 23 
*END

*D_NET *291 0.000847764
*CONN
*I *1570:A2 I *D sky130_fd_sc_hd__o21ai_1
*I *1568:Y O *D sky130_fd_sc_hd__o21ai_1
*CAP
1 *1570:A2 0
2 *1568:Y 0.000231345
3 *291:10 0.000231345
4 *291:10 *292:8 0
5 *291:10 *293:10 3.76387e-05
6 *289:16 *291:10 0.000347435
*RES
1 *1568:Y *291:10 42.64 
2 *291:10 *1570:A2 38 
*END

*D_NET *292 0.000956673
*CONN
*I *1570:B1 I *D sky130_fd_sc_hd__o21ai_1
*I *1569:X O *D sky130_fd_sc_hd__o31a_1
*CAP
1 *1570:B1 8.506e-05
2 *1569:X 0.000275573
3 *292:8 0.000360633
4 *1570:B1 *293:10 2.95423e-05
5 *1570:B1 *380:67 6.68986e-05
6 *292:8 *1569:A1 4.53474e-05
7 *292:8 *293:10 3.36703e-05
8 *292:8 *463:29 4.85671e-05
9 *288:42 *292:8 1.13812e-05
10 *291:10 *292:8 0
*RES
1 *1569:X *292:8 42.7229 
2 *292:8 *1570:B1 40.0507 
*END

*D_NET *293 0.000602109
*CONN
*I *1572:A I *D sky130_fd_sc_hd__nand2_1
*I *1570:Y O *D sky130_fd_sc_hd__o21ai_1
*CAP
1 *1572:A 3.84079e-05
2 *1570:Y 0.000176486
3 *293:10 0.000214894
4 *1572:A *1514:A 5.12055e-06
5 *1572:A *1572:B 1.06613e-05
6 *293:10 *380:67 3.95707e-06
7 *1570:B1 *293:10 2.95423e-05
8 *1571:B *1572:A 4.68198e-05
9 *142:10 *1572:A 4.91172e-06
10 *291:10 *293:10 3.76387e-05
11 *292:8 *293:10 3.36703e-05
*RES
1 *1570:Y *293:10 41.0036 
2 *293:10 *1572:A 39.1186 
*END

*D_NET *294 0.000164467
*CONN
*I *1572:B I *D sky130_fd_sc_hd__nand2_1
*I *1571:X O *D sky130_fd_sc_hd__or3b_1
*CAP
1 *1572:B 3.92686e-05
2 *1571:X 3.92686e-05
3 *1571:B *1572:B 2.43338e-05
4 *1572:A *1572:B 1.06613e-05
5 *142:10 *1572:B 3.26241e-05
6 *162:151 *1572:B 1.83107e-05
*RES
1 *1571:X *1572:B 47.4707 
*END

*D_NET *295 0.00108471
*CONN
*I *1574:B2 I *D sky130_fd_sc_hd__a22o_1
*I *1573:X O *D sky130_fd_sc_hd__a211o_1
*CAP
1 *1574:B2 0
2 *1573:X 0.000221279
3 *295:10 0.000221279
4 *1563:B1 *295:10 2.64616e-05
5 *149:70 *295:10 0.000371147
6 *161:33 *295:10 0.000139647
7 *288:10 *295:10 0.000104893
*RES
1 *1573:X *295:10 43.6964 
2 *295:10 *1574:B2 38 
*END

*D_NET *296 0.00115161
*CONN
*I *1576:B1 I *D sky130_fd_sc_hd__a22o_1
*I *1574:X O *D sky130_fd_sc_hd__a22o_1
*CAP
1 *1576:B1 0
2 *1574:X 0.00037902
3 *296:10 0.00037902
4 *296:10 *1576:A1 1.57571e-05
5 *296:10 *1576:B2 1.34406e-05
6 *141:10 *296:10 0.000181919
7 *159:58 *296:10 0
8 *173:125 *296:10 4.57742e-05
9 *278:42 *296:10 8.33761e-05
10 *278:57 *296:10 5.3304e-05
*RES
1 *1574:X *296:10 30.3329 
2 *296:10 *1576:B1 23 
*END

*D_NET *297 0.000796875
*CONN
*I *1576:B2 I *D sky130_fd_sc_hd__a22o_1
*I *1575:X O *D sky130_fd_sc_hd__o31a_1
*CAP
1 *1576:B2 7.88642e-05
2 *1575:X 0.000198223
3 *297:10 0.000277087
4 *1576:B2 *1576:A1 3.91386e-05
5 *297:10 *1831:A 0
6 *297:10 *381:48 9.91895e-05
7 *297:10 *491:65 5.56203e-05
8 *141:10 *1576:B2 3.53115e-05
9 *278:42 *1576:B2 0
10 *296:10 *1576:B2 1.34406e-05
*RES
1 *1575:X *297:10 41.6043 
2 *297:10 *1576:B2 40.0921 
*END

*D_NET *298 0.00152746
*CONN
*I *1579:A1 I *D sky130_fd_sc_hd__a21oi_1
*I *1580:A1 I *D sky130_fd_sc_hd__a31o_1
*I *1577:X O *D sky130_fd_sc_hd__or3b_1
*CAP
1 *1579:A1 0
2 *1580:A1 0.000104326
3 *1577:X 0.000252665
4 *298:21 8.78868e-05
5 *298:6 0.000444878
6 *298:6 *1577:C_N 0.000179473
7 *298:21 *300:8 2.15318e-05
8 *1556:B *298:6 5.3304e-05
9 *161:20 *298:21 0.000186476
10 *240:12 *1580:A1 2.81066e-05
11 *240:12 *298:6 3.1909e-05
12 *263:68 *298:21 0.000136905
*RES
1 *1577:X *298:6 26.9564 
2 *298:6 *1580:A1 24.595 
3 *298:6 *298:21 32.61 
4 *298:21 *1579:A1 23 
*END

*D_NET *299 0.00155756
*CONN
*I *1580:A2 I *D sky130_fd_sc_hd__a31o_1
*I *1579:A2 I *D sky130_fd_sc_hd__a21oi_1
*I *1578:Y O *D sky130_fd_sc_hd__nand2_1
*CAP
1 *1580:A2 0
2 *1579:A2 0.000158212
3 *1578:Y 0.000281542
4 *299:23 7.893e-05
5 *299:6 0.000518684
6 *299:23 *300:8 0.000134776
7 *1578:A *299:6 1.84831e-05
8 *161:20 *1579:A2 1.3523e-05
9 *240:46 *1579:A2 6.70717e-05
10 *240:46 *299:6 2.50118e-05
11 *240:46 *299:23 0.000132638
12 *279:8 *1579:A2 6.37432e-05
13 *279:8 *299:6 6.49425e-05
*RES
1 *1578:Y *299:6 26.48 
2 *299:6 *1579:A2 26.045 
3 *299:6 *299:23 31.9057 
4 *299:23 *1580:A2 23 
*END

*D_NET *300 0.00207274
*CONN
*I *1581:B1 I *D sky130_fd_sc_hd__o22ai_1
*I *1579:Y O *D sky130_fd_sc_hd__a21oi_1
*CAP
1 *1581:B1 0.000260598
2 *1579:Y 0.00027497
3 *300:8 0.000535568
4 *1581:B1 *1581:A1 2.64616e-05
5 *1581:B1 *302:6 2.45235e-05
6 *300:8 *303:127 1.0092e-05
7 *149:68 *300:8 0.000149973
8 *161:20 *300:8 3.64004e-05
9 *240:46 *300:8 1.29848e-05
10 *254:82 *300:8 1.60949e-05
11 *255:92 *1581:B1 0.000306338
12 *263:68 *300:8 0.000262428
13 *298:21 *300:8 2.15318e-05
14 *299:23 *300:8 0.000134776
*RES
1 *1579:Y *300:8 44.1314 
2 *300:8 *1581:B1 42.9093 
*END

*D_NET *301 0.00079333
*CONN
*I *1581:B2 I *D sky130_fd_sc_hd__o22ai_1
*I *1580:X O *D sky130_fd_sc_hd__a31o_1
*CAP
1 *1581:B2 0
2 *1580:X 0.000226292
3 *301:10 0.000226292
4 *301:10 *1513:A 0.000168269
5 *301:10 *385:92 2.03764e-06
6 *301:10 *474:25 0.000140958
7 *1513:B *301:10 1.35714e-05
8 *240:6 *301:10 1.59094e-05
*RES
1 *1580:X *301:10 41.9564 
2 *301:10 *1581:B2 38 
*END

*D_NET *302 0.000719837
*CONN
*I *1583:B1 I *D sky130_fd_sc_hd__o2bb2ai_1
*I *1581:Y O *D sky130_fd_sc_hd__o22ai_1
*CAP
1 *1583:B1 0
2 *1581:Y 0.000256241
3 *302:6 0.000256241
4 *302:6 *474:14 0.000182832
5 *1581:B1 *302:6 2.45235e-05
*RES
1 *1581:Y *302:6 28.2718 
2 *302:6 *1583:B1 23 
*END

*D_NET *303 0.0320733
*CONN
*I *1661:A2 I *D sky130_fd_sc_hd__a31o_1
*I *1659:A2 I *D sky130_fd_sc_hd__a31o_1
*I *1583:B2 I *D sky130_fd_sc_hd__o2bb2ai_1
*I *1666:A1 I *D sky130_fd_sc_hd__o21ai_1
*I *1587:A1_N I *D sky130_fd_sc_hd__a2bb2o_1
*I *1649:A2 I *D sky130_fd_sc_hd__a31o_1
*I *1653:A2 I *D sky130_fd_sc_hd__a31o_1
*I *1655:A2 I *D sky130_fd_sc_hd__a31o_1
*I *1651:A2 I *D sky130_fd_sc_hd__a31o_1
*I *1657:A2 I *D sky130_fd_sc_hd__a31o_1
*I *1582:X O *D sky130_fd_sc_hd__clkbuf_4
*CAP
1 *1661:A2 0
2 *1659:A2 0
3 *1583:B2 0.000160498
4 *1666:A1 8.20464e-05
5 *1587:A1_N 0
6 *1649:A2 0
7 *1653:A2 0
8 *1655:A2 0.000389646
9 *1651:A2 5.91045e-05
10 *1657:A2 0.000169611
11 *1582:X 0.000145983
12 *303:145 0.000637193
13 *303:135 0.000715645
14 *303:133 0.00069902
15 *303:127 0.00209014
16 *303:115 0.00191613
17 *303:73 0.00150258
18 *303:63 0.00129894
19 *303:59 0.000898213
20 *303:47 0.0010737
21 *303:20 0.000852698
22 *303:16 0.00248708
23 *303:10 0.00289557
24 *1583:B2 *360:162 8.52094e-06
25 *1583:B2 *385:45 7.50533e-05
26 *1583:B2 *392:22 0.00035542
27 *1651:A2 *352:10 0
28 *1651:A2 *396:16 1.14452e-05
29 *1651:A2 *409:14 0
30 *1655:A2 *352:10 0
31 *1655:A2 *383:48 5.67058e-05
32 *1655:A2 *383:61 0.00026034
33 *1655:A2 *387:52 0.000530942
34 *1655:A2 *409:14 0
35 *1657:A2 *1649:B1 7.28721e-05
36 *1657:A2 *351:8 2.05503e-05
37 *1657:A2 *355:10 1.05441e-05
38 *1657:A2 *383:137 1.05887e-05
39 *1666:A1 *1587:A2_N 1.14154e-05
40 *1666:A1 *1667:A2 0.000270455
41 *1666:A1 *1667:B1 0.000100061
42 *1666:A1 *361:42 1.03955e-05
43 *1666:A1 *423:8 7.38076e-05
44 *303:10 *483:61 5.94459e-05
45 *303:16 *1469:A 6.26211e-05
46 *303:16 *1648:B1 0
47 *303:16 *383:137 4.72619e-05
48 *303:16 *481:41 0.000127709
49 *303:16 *481:47 0.000288206
50 *303:16 *481:59 1.91026e-05
51 *303:16 *482:50 0
52 *303:16 *482:114 0.000345081
53 *303:16 *483:61 4.06572e-05
54 *303:16 *491:30 2.30362e-05
55 *303:20 *1648:B2 3.357e-05
56 *303:20 *351:8 0.000325474
57 *303:20 *383:137 1.33173e-05
58 *303:20 *402:18 0
59 *303:20 *490:20 3.27386e-05
60 *303:47 *397:18 0.000436226
61 *303:47 *486:33 1.41129e-05
62 *303:59 *338:26 0.000108985
63 *303:59 *439:10 0.000568198
64 *303:59 *488:14 0.000191255
65 *303:59 *488:48 0.000173487
66 *303:63 *383:99 2.47127e-05
67 *303:63 *395:24 0.000359813
68 *303:63 *487:39 8.48502e-06
69 *303:73 *1793:CLK 0.000198206
70 *303:73 *487:39 2.02872e-05
71 *303:115 *1661:A1 7.93058e-05
72 *303:115 *482:114 7.17698e-05
73 *303:127 *1661:A1 3.86731e-05
74 *303:127 *357:14 5.61255e-06
75 *303:127 *485:32 0.00018435
76 *303:133 *356:8 0.000807774
77 *303:145 *1587:A2_N 5.90675e-06
78 *303:145 *1667:A2 2.4754e-05
79 *303:145 *306:12 4.5051e-05
80 *303:145 *360:162 9.73593e-05
81 *303:145 *383:25 0
82 *303:145 *385:45 9.46725e-05
83 *303:145 *385:51 0.000228903
84 *303:145 *423:8 0.000141052
85 *1440:A *303:16 0.000189047
86 *1447:C *303:16 3.20917e-05
87 *1470:A1 *303:16 0.000340925
88 *1472:A1 *303:16 4.75766e-05
89 *1473:A2 *303:16 0
90 *1584:A *303:127 0.000178517
91 *1651:A3 *303:73 5.90155e-05
92 *1657:A3 *1657:A2 1.75562e-05
93 *1657:A3 *303:59 0
94 *1660:A2 *303:127 5.30121e-05
95 *1793:D *303:73 2.93747e-05
96 *1795:RESET_B *1655:A2 9.07922e-05
97 *67:10 *303:59 8.62876e-05
98 *67:10 *303:63 5.50049e-05
99 *86:10 *303:145 0.000155407
100 *118:10 *303:59 5.50106e-05
101 *120:10 *303:73 3.22879e-05
102 *154:34 *303:16 4.8838e-05
103 *155:16 *303:16 1.71301e-05
104 *157:12 *303:16 0
105 *157:23 *303:10 5.69388e-05
106 *157:23 *303:16 0.000100871
107 *160:35 *303:115 0.000784656
108 *160:35 *303:127 7.97392e-05
109 *163:111 *303:10 5.5792e-05
110 *171:8 *303:16 0
111 *172:27 *303:16 0
112 *173:83 *303:16 0.000206594
113 *174:10 *303:16 0
114 *179:26 *303:16 0.000293549
115 *191:8 *303:16 0.000114092
116 *200:8 *303:115 5.14826e-05
117 *205:8 *303:115 0.000166348
118 *239:49 *303:127 0.000384474
119 *254:82 *303:127 0.000210697
120 *255:35 *303:16 2.64506e-05
121 *259:125 *303:16 0.00165081
122 *259:180 *303:47 1.72791e-05
123 *263:68 *303:127 8.79537e-05
124 *266:22 *303:16 0
125 *266:28 *303:16 0
126 *266:51 *303:59 2.4754e-05
127 *266:59 *303:59 0.000312925
128 *266:79 *303:73 0.000411328
129 *266:119 *303:16 0
130 *266:131 *303:145 0.000179132
131 *278:69 *1583:B2 0
132 *278:71 *303:145 5.94125e-05
133 *300:8 *303:127 1.0092e-05
*RES
1 *1582:X *303:10 40.5271 
2 *303:10 *303:16 49.8075 
3 *303:16 *303:20 5.69643 
4 *303:20 *1657:A2 41.2418 
5 *303:20 *303:47 33.1234 
6 *303:47 *303:59 46.5093 
7 *303:59 *303:63 5.40643 
8 *303:63 *303:73 31.4057 
9 *303:73 *1651:A2 38.8493 
10 *303:73 *1655:A2 48.6679 
11 *303:63 *1653:A2 23 
12 *303:47 *1649:A2 23 
13 *303:10 *303:115 28.05 
14 *303:115 *303:127 36.2736 
15 *303:127 *303:133 25.5229 
16 *303:133 *303:135 15 
17 *303:135 *303:145 28.7543 
18 *303:145 *1587:A1_N 23 
19 *303:145 *1666:A1 26.5007 
20 *303:135 *1583:B2 43.075 
21 *303:133 *1659:A2 23 
22 *303:115 *1661:A2 23 
*END

*D_NET *304 0.00110108
*CONN
*I *1586:B1 I *D sky130_fd_sc_hd__a22oi_2
*I *1584:X O *D sky130_fd_sc_hd__or2_1
*CAP
1 *1586:B1 2.26261e-05
2 *1584:X 0.000165601
3 *304:8 0.000188227
4 *1586:B1 *1586:A1 5.3304e-05
5 *304:8 *305:16 0.000187986
6 *304:8 *491:61 8.82524e-05
7 *254:82 *304:8 0.000365754
8 *263:57 *1586:B1 2.93335e-05
*RES
1 *1584:X *304:8 43.075 
2 *304:8 *1586:B1 38.6214 
*END

*D_NET *305 0.00135427
*CONN
*I *1586:B2 I *D sky130_fd_sc_hd__a22oi_2
*I *1585:Y O *D sky130_fd_sc_hd__a21oi_1
*CAP
1 *1586:B2 0
2 *1585:Y 0.000407558
3 *305:16 0.000407558
4 *305:16 *1586:A1 0
5 *305:16 *389:36 2.80512e-05
6 *305:16 *491:61 0.000111852
7 *1585:A2 *305:16 5.70419e-05
8 *239:6 *305:16 9.92144e-05
9 *263:57 *305:16 5.50049e-05
10 *304:8 *305:16 0.000187986
*RES
1 *1585:Y *305:16 47.135 
2 *305:16 *1586:B2 38 
*END

*D_NET *306 0.00368906
*CONN
*I *1587:A2_N I *D sky130_fd_sc_hd__a2bb2o_1
*I *1667:A2 I *D sky130_fd_sc_hd__o21ai_1
*I *1586:Y O *D sky130_fd_sc_hd__a22oi_2
*CAP
1 *1587:A2_N 1.89322e-05
2 *1667:A2 0.000185252
3 *1586:Y 8.40528e-05
4 *306:12 0.000452345
5 *306:8 0.000332214
6 *1667:A2 *1667:A1 2.02517e-05
7 *1667:A2 *1667:B1 2.46906e-05
8 *1667:A2 *361:61 3.18142e-05
9 *306:12 *361:42 1.56446e-05
10 *306:12 *383:146 0.000744653
11 *306:12 *423:8 1.22822e-05
12 *306:12 *453:6 0.000786889
13 *1528:B *306:12 9.84851e-05
14 *1666:A1 *1587:A2_N 1.14154e-05
15 *1666:A1 *1667:A2 0.000270455
16 *139:10 *1667:A2 0.000141675
17 *149:68 *306:8 4.49946e-05
18 *254:82 *306:8 6.33614e-05
19 *263:68 *306:8 3.70187e-05
20 *278:69 *1667:A2 5.67058e-05
21 *278:69 *306:12 0.000180218
22 *303:145 *1587:A2_N 5.90675e-06
23 *303:145 *1667:A2 2.4754e-05
24 *303:145 *306:12 4.5051e-05
*RES
1 *1586:Y *306:8 39.9057 
2 *306:8 *306:12 26.5793 
3 *306:12 *1667:A2 28.4064 
4 *306:12 *1587:A2_N 23.4971 
*END

*D_NET *307 0.00229744
*CONN
*I *1590:A1 I *D sky130_fd_sc_hd__a21o_1
*I *1598:A2 I *D sky130_fd_sc_hd__a31o_1
*I *1597:A1 I *D sky130_fd_sc_hd__a21oi_1
*I *1588:Y O *D sky130_fd_sc_hd__nand3_1
*CAP
1 *1590:A1 3.47985e-05
2 *1598:A2 0.000340468
3 *1597:A1 2.00578e-05
4 *1588:Y 0.000150092
5 *307:21 0.000552781
6 *307:8 0.000347664
7 *1590:A1 *1598:A1 8.62876e-05
8 *1598:A2 *1598:A1 1.54983e-05
9 *1598:A2 *1599:A2_N 7.67208e-05
10 *307:8 *315:10 2.93845e-05
11 *307:21 *1598:A1 8.62783e-05
12 *1588:A *1597:A1 0
13 *1597:A2 *307:21 5.56356e-05
14 *1598:A3 *1598:A2 2.64616e-05
15 *193:29 *307:21 0
16 *259:94 *1590:A1 7.70737e-05
17 *259:94 *307:21 0.000274553
18 *263:130 *1598:A2 9.41704e-05
19 *263:140 *307:21 2.95125e-05
*RES
1 *1588:Y *307:8 25.5479 
2 *307:8 *1597:A1 23.4971 
3 *307:8 *307:21 19.7643 
4 *307:21 *1598:A2 42.8057 
5 *307:21 *1590:A1 39.2014 
*END

*D_NET *308 0.00342403
*CONN
*I *1598:A1 I *D sky130_fd_sc_hd__a31o_1
*I *1590:B1 I *D sky130_fd_sc_hd__a21o_1
*I *1597:B1 I *D sky130_fd_sc_hd__a21oi_1
*I *1589:Y O *D sky130_fd_sc_hd__o21ai_1
*CAP
1 *1598:A1 0.000336817
2 *1590:B1 0
3 *1597:B1 0
4 *1589:Y 8.98567e-05
5 *308:26 0.000251542
6 *308:18 0.000339733
7 *308:10 0.000514865
8 *1598:A1 *1599:A1_N 0
9 *1598:A1 *1599:A2_N 0.000102052
10 *1598:A1 *1599:B1 8.32511e-05
11 *308:10 *1599:B1 0.000130212
12 *308:26 *315:10 8.4047e-05
13 *1511:C *308:26 0
14 *1590:A1 *1598:A1 8.62876e-05
15 *1598:A2 *1598:A1 1.54983e-05
16 *1598:A3 *1598:A1 2.64616e-05
17 *193:61 *308:18 9.58714e-05
18 *193:61 *308:26 9.84851e-05
19 *206:8 *308:26 0
20 *255:52 *308:18 8.49716e-05
21 *255:52 *308:26 9.84851e-05
22 *259:94 *1598:A1 1.88972e-05
23 *259:94 *308:10 3.90425e-05
24 *259:94 *308:18 4.77554e-05
25 *259:94 *308:26 0.000110983
26 *263:100 *308:26 0.000221184
27 *263:106 *308:26 5.26308e-05
28 *263:140 *1598:A1 0.000408821
29 *307:21 *1598:A1 8.62783e-05
*RES
1 *1589:Y *308:10 40.3511 
2 *308:10 *308:18 17.3925 
3 *308:18 *308:26 36.8771 
4 *308:26 *1597:B1 23 
5 *308:18 *1590:B1 23 
6 *308:10 *1598:A1 46.4411 
*END

*D_NET *309 0.00233768
*CONN
*I *1592:B1 I *D sky130_fd_sc_hd__a22o_1
*I *1591:A4 I *D sky130_fd_sc_hd__a41oi_1
*I *1590:X O *D sky130_fd_sc_hd__a21o_1
*CAP
1 *1592:B1 0.000198219
2 *1591:A4 0
3 *1590:X 0.000429764
4 *309:10 0.000627983
5 *1592:B1 *1593:B 0
6 *1592:B1 *472:24 8.48502e-06
7 *1479:B1 *309:10 4.32372e-05
8 *1592:A2 *1592:B1 0.000178368
9 *1592:B2 *1592:B1 0.000120267
10 *193:61 *309:10 3.22879e-05
11 *201:23 *1592:B1 1.14452e-05
12 *201:23 *309:10 0.000138727
13 *203:10 *309:10 0.000214337
14 *203:19 *309:10 6.48049e-05
15 *203:32 *1592:B1 4.92689e-05
16 *203:32 *309:10 0.000161121
17 *259:94 *309:10 0
18 *263:106 *309:10 5.93696e-05
*RES
1 *1590:X *309:10 46.1614 
2 *309:10 *1591:A4 38 
3 *309:10 *1592:B1 41.8529 
*END

*D_NET *310 0.000695741
*CONN
*I *1593:A I *D sky130_fd_sc_hd__nand2_1
*I *1591:Y O *D sky130_fd_sc_hd__a41oi_1
*CAP
1 *1593:A 0
2 *1591:Y 0.000259549
3 *310:10 0.000259549
4 *310:10 *385:102 4.29621e-05
5 *310:10 *400:34 5.45237e-05
6 *310:10 *472:54 6.67197e-05
7 *1591:A1 *310:10 1.24376e-05
*RES
1 *1591:Y *310:10 42.4329 
2 *310:10 *1593:A 38 
*END

*D_NET *311 0.000185495
*CONN
*I *1593:B I *D sky130_fd_sc_hd__nand2_1
*I *1592:X O *D sky130_fd_sc_hd__a22o_1
*CAP
1 *1593:B 7.50765e-05
2 *1592:X 7.50765e-05
3 *1593:B *472:24 1.3523e-05
4 *1592:B1 *1593:B 0
5 *278:121 *1593:B 2.1819e-05
*RES
1 *1592:X *1593:B 47.4707 
*END

*D_NET *312 0.00254986
*CONN
*I *1668:A1 I *D sky130_fd_sc_hd__a32o_1
*I *1595:B1 I *D sky130_fd_sc_hd__a22o_1
*I *1593:Y O *D sky130_fd_sc_hd__nand2_1
*CAP
1 *1668:A1 0.000156822
2 *1595:B1 0
3 *1593:Y 0.000630271
4 *312:10 0.000787092
5 *1668:A1 *313:22 6.93118e-05
6 *312:10 *472:24 7.032e-05
7 *162:22 *1668:A1 0.000102755
8 *263:114 *1668:A1 0.000133439
9 *263:114 *312:10 0.000150022
10 *278:121 *312:10 0.000449833
*RES
1 *1593:Y *312:10 48.7093 
2 *312:10 *1595:B1 38 
3 *312:10 *1668:A1 42.2879 
*END

*D_NET *313 0.00191694
*CONN
*I *1595:B2 I *D sky130_fd_sc_hd__a22o_1
*I *1668:A2 I *D sky130_fd_sc_hd__a32o_1
*I *1594:X O *D sky130_fd_sc_hd__o31a_1
*CAP
1 *1595:B2 0
2 *1668:A2 0
3 *1594:X 0.000405269
4 *313:22 0.000236067
5 *313:12 0.000641335
6 *313:12 *1812:CLK 5.5792e-05
7 *313:12 *385:100 1.36771e-05
8 *313:12 *473:52 5.45644e-05
9 *313:22 *1812:CLK 0.000218628
10 *313:22 *458:20 3.7877e-05
11 *1594:A2 *313:12 1.00678e-05
12 *1668:A1 *313:22 6.93118e-05
13 *153:123 *313:12 7.36728e-05
14 *162:22 *313:22 0.000100678
*RES
1 *1594:X *313:12 29.8771 
2 *313:12 *313:22 34.9093 
3 *313:22 *1668:A2 23 
4 *313:12 *1595:B2 23 
*END

*D_NET *314 0.0256422
*CONN
*I *1626:A2 I *D sky130_fd_sc_hd__a22o_1
*I *1652:B1 I *D sky130_fd_sc_hd__a22o_1
*I *1654:B1 I *D sky130_fd_sc_hd__a22o_1
*I *1600:A2 I *D sky130_fd_sc_hd__a22o_1
*I *1610:A2 I *D sky130_fd_sc_hd__a22o_1
*I *1648:B1 I *D sky130_fd_sc_hd__a22o_1
*I *1656:B1 I *D sky130_fd_sc_hd__a22o_1
*I *1650:B1 I *D sky130_fd_sc_hd__a22o_1
*I *1621:A2 I *D sky130_fd_sc_hd__a22o_1
*I *1647:A2 I *D sky130_fd_sc_hd__a221o_1
*I *1596:X O *D sky130_fd_sc_hd__clkbuf_4
*CAP
1 *1626:A2 0
2 *1652:B1 1.13864e-05
3 *1654:B1 0
4 *1600:A2 0.000350065
5 *1610:A2 3.73748e-06
6 *1648:B1 0.000272157
7 *1656:B1 3.51459e-05
8 *1650:B1 7.26867e-05
9 *1621:A2 8.48067e-05
10 *1647:A2 1.70951e-05
11 *1596:X 0.000267975
12 *314:109 0.00155415
13 *314:86 0.00189153
14 *314:73 0.00203044
15 *314:65 0.00192704
16 *314:52 0.000511965
17 *314:48 0.000471391
18 *314:40 0.000697869
19 *314:29 0.00067107
20 *314:25 0.00202092
21 *314:10 0.0020461
22 *1600:A2 *1600:A1 3.26241e-05
23 *1600:A2 *1669:A0 0.000118684
24 *1600:A2 *1755:A 0.000230726
25 *1600:A2 *317:18 5.71002e-06
26 *1600:A2 *325:14 9.87053e-06
27 *1600:A2 *469:29 1.29944e-05
28 *1610:A2 *325:14 5.75756e-06
29 *1610:A2 *325:24 6.99132e-06
30 *1647:A2 *473:8 1.6318e-05
31 *1647:A2 *491:43 3.28708e-05
32 *1648:B1 *1648:B2 0.000102971
33 *1648:B1 *388:14 0.000102971
34 *1648:B1 *402:18 0.000170167
35 *1650:B1 *1652:A1 0.000387644
36 *1650:B1 *352:10 1.61385e-05
37 *1650:B1 *490:20 2.50118e-05
38 *1652:B1 *1652:A1 2.93658e-05
39 *1652:B1 *490:20 5.82853e-05
40 *1656:B1 *487:53 3.7681e-05
41 *314:10 *1742:A 0.000530819
42 *314:10 *383:156 0.0001396
43 *314:10 *473:8 0.000947964
44 *314:10 *491:43 0.000238106
45 *314:25 *339:53 0.000718863
46 *314:25 *389:16 0.00018745
47 *314:25 *469:70 5.65491e-05
48 *314:25 *469:89 1.02387e-05
49 *314:40 *1638:S 0
50 *314:40 *1822:A 2.82105e-05
51 *314:40 *338:10 0.000296399
52 *314:40 *339:53 0
53 *314:40 *437:8 6.51997e-06
54 *314:48 *1652:B2 4.41821e-06
55 *314:48 *338:10 5.75756e-06
56 *314:48 *338:26 4.19479e-05
57 *314:52 *1652:A1 0.000249187
58 *314:52 *1652:B2 5.58003e-05
59 *314:52 *490:20 3.15124e-05
60 *314:65 *338:26 0.000162254
61 *314:65 *354:10 7.9819e-05
62 *314:65 *487:14 9.88303e-05
63 *314:73 *360:24 0.000111656
64 *314:73 *382:82 0.000931307
65 *314:73 *412:8 1.40004e-05
66 *314:73 *487:14 3.39192e-05
67 *314:73 *487:43 0.000119645
68 *314:73 *487:53 0
69 *314:86 *402:18 0.000200334
70 *314:86 *487:43 1.76557e-05
71 *314:86 *487:53 0.000185428
72 *314:109 *325:24 0.000156662
73 *314:109 *338:36 0.000837291
74 *314:109 *360:41 7.19639e-05
75 *314:109 *363:8 9.87385e-06
76 *314:109 *402:18 4.44955e-05
77 *314:109 *442:10 3.27749e-06
78 *1611:A1 *314:25 9.86551e-06
79 *1650:A2 *1650:B1 0.000279219
80 *1650:A2 *314:52 8.17328e-05
81 *1654:A2 *314:65 0.000124282
82 *1654:A2 *314:73 1.63599e-05
83 *1657:A3 *1648:B1 1.12695e-05
84 *1657:A3 *314:86 6.85548e-05
85 *66:10 *314:65 0.000163352
86 *132:8 *314:40 7.74854e-05
87 *133:16 *1621:A2 9.75779e-05
88 *163:78 *1600:A2 0.000426653
89 *207:10 *314:25 0.000191149
90 *207:33 *314:25 0.000212121
91 *208:10 *314:25 2.33476e-05
92 *215:21 *314:25 5.44889e-06
93 *216:14 *314:25 4.89774e-05
94 *223:41 *314:25 0
95 *223:47 *314:25 0.000158999
96 *229:16 *314:25 0
97 *259:141 *314:48 5.14006e-05
98 *259:180 *314:86 0.000160983
99 *263:12 *314:25 0
100 *263:43 *314:25 4.38956e-05
101 *266:28 *1648:B1 0.000411166
102 *266:67 *314:73 1.02949e-05
103 *303:16 *1648:B1 0
*RES
1 *1596:X *314:10 35.2214 
2 *314:10 *1647:A2 23.3832 
3 *314:10 *314:25 49.7171 
4 *314:25 *314:29 19.4329 
5 *314:29 *1621:A2 24.5743 
6 *314:29 *314:40 23.2443 
7 *314:40 *314:48 19.5571 
8 *314:48 *314:52 3.02429 
9 *314:52 *1650:B1 27.4536 
10 *314:52 *314:65 23.2443 
11 *314:65 *314:73 40.0643 
12 *314:73 *1656:B1 23.8493 
13 *314:73 *314:86 24.1868 
14 *314:86 *1648:B1 45.5296 
15 *314:86 *314:109 47.9386 
16 *314:109 *1610:A2 38.3211 
17 *314:109 *1600:A2 47.9532 
18 *314:65 *1654:B1 38 
19 *314:48 *1652:B1 23.6214 
20 *314:40 *1626:A2 38 
*END

*D_NET *315 0.000518311
*CONN
*I *1599:A1_N I *D sky130_fd_sc_hd__a2bb2o_1
*I *1597:Y O *D sky130_fd_sc_hd__a21oi_1
*CAP
1 *1599:A1_N 6.0807e-05
2 *1597:Y 9.72433e-05
3 *315:10 0.00015805
4 *1511:B *1599:A1_N 9.72057e-06
5 *1511:D *1599:A1_N 0
6 *1598:A1 *1599:A1_N 0
7 *259:94 *315:10 4.08641e-05
8 *263:100 *1599:A1_N 5.90675e-06
9 *263:130 *1599:A1_N 3.22879e-05
10 *307:8 *315:10 2.93845e-05
11 *308:26 *315:10 8.4047e-05
*RES
1 *1597:Y *315:10 39.8229 
2 *315:10 *1599:A1_N 39.4707 
*END

*D_NET *316 0.000567786
*CONN
*I *1599:A2_N I *D sky130_fd_sc_hd__a2bb2o_1
*I *1598:X O *D sky130_fd_sc_hd__a31o_1
*CAP
1 *1599:A2_N 0.000126988
2 *1598:X 0.000126988
3 *1598:A1 *1599:A2_N 0.000102052
4 *1598:A2 *1599:A2_N 7.67208e-05
5 *263:130 *1599:A2_N 0.000135037
*RES
1 *1598:X *1599:A2_N 49.5007 
*END

*D_NET *317 0.0065872
*CONN
*I *1600:B1 I *D sky130_fd_sc_hd__a22o_1
*I *1669:A0 I *D sky130_fd_sc_hd__mux2_1
*I *1599:X O *D sky130_fd_sc_hd__a2bb2o_1
*CAP
1 *1600:B1 0
2 *1669:A0 0.000452026
3 *1599:X 0.000514338
4 *317:18 0.00149752
5 *317:10 0.00155983
6 *1669:A0 *325:24 0.000192342
7 *317:18 *318:20 1.41232e-05
8 *317:18 *324:8 9.03157e-05
9 *317:18 *469:29 0
10 *317:18 *470:36 0.00021356
11 *317:18 *471:18 0
12 *317:18 *471:31 0
13 *1457:A2 *317:18 0
14 *1511:B *317:10 0.000239352
15 *1511:D *317:10 0.000102365
16 *1600:A2 *1669:A0 0.000118684
17 *1600:A2 *317:18 5.71002e-06
18 *1606:A2 *317:18 0.000240416
19 *137:10 *1669:A0 0.000110723
20 *178:33 *317:18 3.95159e-06
21 *183:27 *317:18 0.000106599
22 *185:30 *317:18 0
23 *186:12 *317:18 6.53712e-05
24 *187:19 *317:18 5.40762e-05
25 *228:56 *317:10 0.000350544
26 *231:31 *317:18 0.000136486
27 *236:10 *317:18 0
28 *236:25 *317:18 0
29 *237:12 *317:10 0.000247596
30 *237:12 *317:18 7.26495e-05
31 *263:100 *317:10 7.37252e-05
32 *263:100 *317:18 0.000108762
33 *263:106 *317:10 8.06804e-06
34 *263:130 *317:10 8.06804e-06
*RES
1 *1599:X *317:10 49.3825 
2 *317:10 *317:18 22.1539 
3 *317:18 *1669:A0 47.5907 
4 *317:18 *1600:B1 38 
*END

*D_NET *318 0.00284363
*CONN
*I *1602:B2 I *D sky130_fd_sc_hd__a22oi_1
*I *1603:A4 I *D sky130_fd_sc_hd__a41o_1
*I *1608:B I *D sky130_fd_sc_hd__and3_1
*I *1601:Y O *D sky130_fd_sc_hd__o2111ai_2
*CAP
1 *1602:B2 2.99485e-05
2 *1603:A4 0.000287005
3 *1608:B 7.05497e-05
4 *1601:Y 0.000139339
5 *318:20 0.00048447
6 *318:12 0.000296202
7 *1602:B2 *319:12 6.17437e-06
8 *1603:A4 *320:10 0.000310702
9 *318:12 *323:12 0.000143507
10 *318:20 *323:12 0.000133089
11 *1601:D1 *318:12 6.17437e-06
12 *1603:A3 *1603:A4 0.000309908
13 *1603:B1 *1603:A4 2.18506e-05
14 *228:43 *318:12 1.21972e-05
15 *230:44 *318:12 0
16 *231:12 *1603:A4 4.17736e-05
17 *231:12 *1608:B 0.000137624
18 *231:31 *318:20 0.000114092
19 *234:6 *1602:B2 5.3304e-05
20 *237:12 *318:12 0.000132342
21 *237:12 *318:20 3.39102e-05
22 *263:92 *1603:A4 6.53382e-05
23 *317:18 *318:20 1.41232e-05
*RES
1 *1601:Y *318:12 41.0243 
2 *318:12 *318:20 18.3764 
3 *318:20 *1608:B 24.595 
4 *318:20 *1603:A4 29.8357 
5 *318:12 *1602:B2 38.6214 
*END

*D_NET *319 0.00301722
*CONN
*I *1604:B1 I *D sky130_fd_sc_hd__o221a_1
*I *1602:Y O *D sky130_fd_sc_hd__a22oi_1
*CAP
1 *1604:B1 0.000802717
2 *1602:Y 0.000124991
3 *319:12 0.000927708
4 *1604:B1 *385:102 4.74882e-05
5 *319:12 *1507:B 6.86315e-06
6 *319:12 *322:10 2.11157e-05
7 *319:12 *469:37 9.58714e-05
8 *1602:B2 *319:12 6.17437e-06
9 *150:95 *1604:B1 2.59839e-05
10 *193:10 *1604:B1 7.56293e-06
11 *230:44 *1604:B1 2.93747e-05
12 *234:6 *319:12 5.42593e-05
13 *259:102 *1604:B1 3.41998e-06
14 *259:125 *1604:B1 0.000863692
*RES
1 *1602:Y *319:12 48.3718 
2 *319:12 *1604:B1 49.1538 
*END

*D_NET *320 0.00147889
*CONN
*I *1604:B2 I *D sky130_fd_sc_hd__o221a_1
*I *1603:X O *D sky130_fd_sc_hd__a41o_1
*CAP
1 *1604:B2 0
2 *1603:X 0.00050713
3 *320:10 0.00050713
4 *320:10 *385:102 0.000135557
5 *1603:A4 *320:10 0.000310702
6 *230:44 *320:10 1.83667e-05
*RES
1 *1603:X *320:10 45.2914 
2 *320:10 *1604:B2 38 
*END

*D_NET *321 0.0100578
*CONN
*I *1671:B1 I *D sky130_fd_sc_hd__a22o_1
*I *1605:B1 I *D sky130_fd_sc_hd__a21o_1
*I *1604:X O *D sky130_fd_sc_hd__o221a_1
*CAP
1 *1671:B1 0.00020319
2 *1605:B1 0.00016166
3 *1604:X 0.000135133
4 *321:21 0.00223656
5 *321:8 0.00233016
6 *1605:B1 *388:139 8.26252e-05
7 *1671:B1 *1671:A1 4.08219e-05
8 *1671:B1 *425:16 5.07601e-05
9 *321:8 *388:139 0.000142678
10 *321:8 *470:12 2.02872e-05
11 *321:21 *1530:B 0.000224345
12 *321:21 *1770:CLK 0.000432548
13 *321:21 *359:18 0
14 *321:21 *390:53 0.00020786
15 *321:21 *400:28 0.000169683
16 *321:21 *424:12 0
17 *1605:A2 *1605:B1 0.000133803
18 *1605:A2 *321:21 6.50772e-05
19 *94:10 *321:21 3.56537e-05
20 *163:124 *321:21 0.00145717
21 *163:167 *321:21 0.001921
22 *255:60 *321:21 0
23 *255:77 *321:21 0
24 *278:125 *321:21 6.81663e-06
*RES
1 *1604:X *321:8 40.5271 
2 *321:8 *1605:B1 42.2879 
3 *321:8 *321:21 52.2621 
4 *321:21 *1671:B1 41.0243 
*END

*D_NET *322 0.00207925
*CONN
*I *1607:B1 I *D sky130_fd_sc_hd__a21o_1
*I *1606:X O *D sky130_fd_sc_hd__o22a_1
*CAP
1 *1607:B1 0
2 *1606:X 0.00063879
3 *322:10 0.00063879
4 *322:10 *1507:B 0
5 *322:10 *469:29 0.000293785
6 *322:10 *470:46 7.28526e-05
7 *173:162 *322:10 0
8 *230:6 *322:10 0.000308247
9 *255:43 *322:10 0.000105671
10 *319:12 *322:10 2.11157e-05
*RES
1 *1606:X *322:10 49.02 
2 *322:10 *1607:B1 38 
*END

*D_NET *323 0.00168163
*CONN
*I *1608:C I *D sky130_fd_sc_hd__and3_1
*I *1607:X O *D sky130_fd_sc_hd__a21o_1
*CAP
1 *1608:C 1.79794e-05
2 *1607:X 0.000306047
3 *323:12 0.000324026
4 *323:12 *324:8 4.6318e-06
5 *323:12 *469:29 1.37246e-05
6 *1601:D1 *323:12 1.3523e-05
7 *1606:A2 *323:12 2.36844e-05
8 *1607:A1 *323:12 0.000186032
9 *228:43 *323:12 0.000115517
10 *231:31 *323:12 3.95159e-06
11 *255:43 *323:12 0.000386215
12 *263:92 *1608:C 9.70259e-06
13 *318:12 *323:12 0.000143507
14 *318:20 *323:12 0.000133089
*RES
1 *1607:X *323:12 46.8036 
2 *323:12 *1608:C 38.2279 
*END

*D_NET *324 0.00090946
*CONN
*I *1609:B1 I *D sky130_fd_sc_hd__a31o_1
*I *1608:X O *D sky130_fd_sc_hd__and3_1
*CAP
1 *1609:B1 1.91252e-05
2 *1608:X 0.000199793
3 *324:8 0.000218918
4 *1609:B1 *470:36 5.50106e-05
5 *324:8 *469:29 0
6 *1457:A1 *1609:B1 5.3304e-05
7 *1606:A2 *324:8 0.000162422
8 *173:174 *324:8 2.26489e-05
9 *178:12 *324:8 4.85126e-05
10 *178:33 *324:8 3.47781e-05
11 *317:18 *324:8 9.03157e-05
12 *323:12 *324:8 4.6318e-06
*RES
1 *1608:X *324:8 42.7229 
2 *324:8 *1609:B1 38.6214 
*END

*D_NET *325 0.00565378
*CONN
*I *1610:B1 I *D sky130_fd_sc_hd__a22o_1
*I *1672:A0 I *D sky130_fd_sc_hd__mux2_1
*I *1609:X O *D sky130_fd_sc_hd__a31o_1
*CAP
1 *1610:B1 0
2 *1672:A0 0
3 *1609:X 5.78933e-05
4 *325:24 0.000849329
5 *325:14 0.00162499
6 *325:8 0.00083355
7 *325:8 *470:46 6.17437e-06
8 *325:14 *408:16 0.000255583
9 *325:14 *469:14 0
10 *325:14 *469:29 0.00045024
11 *325:24 *360:41 0.000337645
12 *325:24 *388:80 0
13 *325:24 *407:14 5.75164e-05
14 *325:24 *407:27 0
15 *325:24 *454:6 0.000502136
16 *1600:A2 *325:14 9.87053e-06
17 *1610:A2 *325:14 5.75756e-06
18 *1610:A2 *325:24 6.99132e-06
19 *1669:A0 *325:24 0.000192342
20 *58:8 *325:24 0
21 *111:10 *325:24 0
22 *163:78 *325:14 8.85041e-05
23 *181:38 *325:8 6.17437e-06
24 *181:38 *325:14 0.00021039
25 *254:16 *325:8 2.03764e-06
26 *314:109 *325:24 0.000156662
*RES
1 *1609:X *325:8 38.6214 
2 *325:8 *325:14 17.11 
3 *325:14 *325:24 48.3114 
4 *325:24 *1672:A0 38 
5 *325:14 *1610:B1 38 
*END

*D_NET *326 0.00163889
*CONN
*I *1615:B2 I *D sky130_fd_sc_hd__o221ai_1
*I *1611:Y O *D sky130_fd_sc_hd__a21oi_1
*CAP
1 *1615:B2 4.82211e-05
2 *1611:Y 0.000538535
3 *326:10 0.000586756
4 *1615:B2 *1616:A1 0
5 *1615:B2 *1616:C1 3.91386e-05
6 *326:10 *1614:A1_N 9.91165e-05
7 *326:10 *1614:A2_N 2.98648e-05
8 *326:10 *469:70 9.41704e-05
9 *326:10 *469:89 7.09083e-06
10 *149:43 *326:10 3.85986e-05
11 *226:14 *326:10 7.11138e-05
12 *228:14 *326:10 8.62876e-05
*RES
1 *1611:Y *326:10 45.54 
2 *326:10 *1615:B2 39.2014 
*END

*D_NET *327 0.00217543
*CONN
*I *1614:A1_N I *D sky130_fd_sc_hd__a2bb2o_1
*I *1612:X O *D sky130_fd_sc_hd__and3_1
*CAP
1 *1614:A1_N 6.00328e-05
2 *1612:X 0.000411439
3 *327:12 0.000471471
4 *1614:A1_N *1614:A2_N 0.000140308
5 *327:12 *328:12 6.47009e-05
6 *1499:C *327:12 2.47015e-05
7 *1612:B *327:12 0.000120593
8 *149:43 *327:12 0.000281536
9 *153:27 *327:12 3.95159e-06
10 *213:8 *327:12 0.000308635
11 *222:21 *327:12 0.000156947
12 *226:26 *1614:A1_N 2.18506e-05
13 *229:64 *327:12 1.01436e-05
14 *326:10 *1614:A1_N 9.91165e-05
*RES
1 *1612:X *327:12 47.0521 
2 *327:12 *1614:A1_N 40.0507 
*END

*D_NET *328 0.00154277
*CONN
*I *1614:A2_N I *D sky130_fd_sc_hd__a2bb2o_1
*I *1613:Y O *D sky130_fd_sc_hd__nor2_1
*CAP
1 *1614:A2_N 7.19388e-05
2 *1613:Y 0.000227247
3 *328:12 0.000299186
4 *1499:C *328:12 2.05503e-05
5 *1501:A2 *328:12 1.09903e-05
6 *1613:B *328:12 7.2298e-05
7 *1614:A1_N *1614:A2_N 0.000140308
8 *153:27 *328:12 0.000199239
9 *207:33 *328:12 0.000137533
10 *222:21 *328:12 3.18198e-05
11 *226:14 *1614:A2_N 9.67842e-05
12 *226:26 *1614:A2_N 0.000140308
13 *326:10 *1614:A2_N 2.98648e-05
14 *327:12 *328:12 6.47009e-05
*RES
1 *1613:Y *328:12 43.0336 
2 *328:12 *1614:A2_N 40.5271 
*END

*D_NET *329 0.00064727
*CONN
*I *1615:C1 I *D sky130_fd_sc_hd__o221ai_1
*I *1614:X O *D sky130_fd_sc_hd__a2bb2o_1
*CAP
1 *1615:C1 0
2 *1614:X 0.000152845
3 *329:10 0.000152845
4 *173:30 *329:10 0.000171906
5 *254:63 *329:10 0.000169674
*RES
1 *1614:X *329:10 41.3557 
2 *329:10 *1615:C1 38 
*END

*D_NET *330 0.000631003
*CONN
*I *1616:C1 I *D sky130_fd_sc_hd__o211ai_1
*I *1615:Y O *D sky130_fd_sc_hd__o221ai_1
*CAP
1 *1616:C1 0.000118038
2 *1615:Y 0.000118038
3 *1616:C1 *1616:A1 7.26769e-05
4 *1616:C1 *331:6 2.68229e-05
5 *1615:A1 *1616:C1 5.56356e-05
6 *1615:A2 *1616:C1 0.000145648
7 *1615:B2 *1616:C1 3.91386e-05
8 *1616:B1 *1616:C1 5.50049e-05
*RES
1 *1615:Y *1616:C1 49.9771 
*END

*D_NET *331 0.00743693
*CONN
*I *1674:A1_N I *D sky130_fd_sc_hd__a2bb2o_1
*I *1617:B1_N I *D sky130_fd_sc_hd__a21bo_1
*I *1616:Y O *D sky130_fd_sc_hd__o211ai_1
*CAP
1 *1674:A1_N 0
2 *1617:B1_N 0.00048196
3 *1616:Y 0.00131181
4 *331:27 0.00101138
5 *331:8 0.00149334
6 *331:6 0.00131181
7 *1617:B1_N *360:132 0
8 *1617:B1_N *391:14 0.00024604
9 *1617:B1_N *444:10 6.77463e-05
10 *331:6 *1616:A1 0.000179934
11 *331:6 *1733:A 2.4754e-05
12 *331:6 *383:42 0.000153145
13 *331:6 *481:31 9.14387e-05
14 *331:27 *1813:CLK 2.86064e-05
15 *331:27 *360:132 0
16 *331:27 *360:160 1.31497e-05
17 *331:27 *361:61 0.000482334
18 *331:27 *382:51 2.36126e-05
19 *331:27 *391:14 0.00015507
20 *1615:A1 *331:6 2.93431e-05
21 *1616:C1 *331:6 2.68229e-05
22 *1789:RESET_B *331:6 0.000218778
23 *134:10 *1617:B1_N 2.92911e-06
24 *139:10 *331:27 8.29264e-05
*RES
1 *1616:Y *331:6 40.7729 
2 *331:6 *331:8 15 
3 *331:8 *1617:B1_N 48.9786 
4 *331:8 *331:27 30.9293 
5 *331:27 *1674:A1_N 23 
*END

*D_NET *332 0.000261479
*CONN
*I *1620:B1 I *D sky130_fd_sc_hd__a32o_1
*I *1618:X O *D sky130_fd_sc_hd__o22a_1
*CAP
1 *1620:B1 4.86586e-05
2 *1618:X 4.86586e-05
3 *1620:B1 *1620:A1 8.05875e-05
4 *1620:B1 *334:29 1.69882e-05
5 *1620:B1 *339:61 2.43944e-05
6 *1620:B1 *468:53 4.21921e-05
*RES
1 *1618:X *1620:B1 47.3361 
*END

*D_NET *333 0.000759242
*CONN
*I *1620:B2 I *D sky130_fd_sc_hd__a32o_1
*I *1619:X O *D sky130_fd_sc_hd__a221o_1
*CAP
1 *1620:B2 0
2 *1619:X 0.00018183
3 *333:10 0.00018183
4 *333:10 *334:29 0.000110913
5 *1619:C1 *333:10 0.000136738
6 *209:26 *333:10 0.000138718
7 *254:48 *333:10 9.21347e-06
*RES
1 *1619:X *333:10 41.48 
2 *333:10 *1620:B2 38 
*END

*D_NET *334 0.00622043
*CONN
*I *1621:B1 I *D sky130_fd_sc_hd__a22o_1
*I *1675:A0 I *D sky130_fd_sc_hd__mux2_1
*I *1620:X O *D sky130_fd_sc_hd__a32o_1
*CAP
1 *1621:B1 0
2 *1675:A0 0.000709148
3 *1620:X 0
4 *334:29 0.000986445
5 *334:4 0.00169559
6 *1675:A0 *1675:A1 0.000671577
7 *1675:A0 *1675:S 0.000311814
8 *1675:A0 *339:61 0.000322286
9 *1675:A0 *360:113 0.000319905
10 *334:29 *1620:A1 2.1453e-05
11 *334:29 *335:16 0
12 *334:29 *336:10 0.000114074
13 *334:29 *338:10 5.26101e-05
14 *334:29 *339:61 0.000268123
15 *334:29 *461:14 3.31879e-05
16 *1620:A2 *334:29 4.81153e-05
17 *1620:B1 *334:29 1.69882e-05
18 *1625:A3 *334:29 7.73596e-05
19 *149:43 *334:29 0
20 *163:49 *334:29 2.10832e-05
21 *163:51 *334:29 6.07611e-06
22 *209:26 *334:29 3.5037e-05
23 *220:8 *334:29 0.000289685
24 *221:10 *334:29 0
25 *254:48 *334:29 0.000108962
26 *333:10 *334:29 0.000110913
*RES
1 *1620:X *334:4 23 
2 *334:4 *1675:A0 41.7257 
3 *334:4 *334:29 49.2643 
4 *334:29 *1621:B1 23 
*END

*D_NET *335 0.00236741
*CONN
*I *1623:A3 I *D sky130_fd_sc_hd__o32a_1
*I *1624:B1 I *D sky130_fd_sc_hd__o21ai_1
*I *1622:X O *D sky130_fd_sc_hd__and2b_1
*CAP
1 *1623:A3 0
2 *1624:B1 0
3 *1622:X 0.000108537
4 *335:16 0.000257555
5 *335:6 0.000366092
6 *335:6 *480:33 9.00923e-05
7 *335:16 *1623:A1 0.000224654
8 *335:16 *337:8 5.67058e-05
9 *335:16 *461:14 2.71291e-05
10 *335:16 *461:27 1.22906e-05
11 *335:16 *461:33 1.24376e-05
12 *335:16 *467:31 5.50049e-05
13 *335:16 *480:33 0.000236079
14 *1622:A_N *335:6 5.50049e-05
15 *1625:A3 *335:16 0.000187986
16 *152:39 *335:6 5.50106e-05
17 *173:46 *335:16 0.000163361
18 *217:10 *335:6 0.000122825
19 *217:10 *335:16 3.22879e-05
20 *217:16 *335:16 2.4754e-05
21 *218:23 *335:6 5.3304e-05
22 *219:6 *335:6 4.17736e-05
23 *219:16 *335:6 0.000184527
24 *334:29 *335:16 0
*RES
1 *1622:X *335:6 27.4329 
2 *335:6 *335:16 37.4157 
3 *335:16 *1624:B1 23 
4 *335:6 *1623:A3 23 
*END

*D_NET *336 0.000571784
*CONN
*I *1625:B1 I *D sky130_fd_sc_hd__a32o_1
*I *1623:X O *D sky130_fd_sc_hd__o32a_1
*CAP
1 *1625:B1 1.47107e-05
2 *1623:X 0.00015345
3 *336:10 0.00016816
4 *1625:B1 *1488:A 2.55176e-05
5 *217:16 *336:10 9.58714e-05
6 *221:10 *336:10 0
7 *334:29 *336:10 0.000114074
*RES
1 *1623:X *336:10 40.6514 
2 *336:10 *1625:B1 38.2796 
*END

*D_NET *337 0.000891217
*CONN
*I *1625:B2 I *D sky130_fd_sc_hd__a32o_1
*I *1624:Y O *D sky130_fd_sc_hd__o21ai_1
*CAP
1 *1625:B2 0
2 *1624:Y 0.000149488
3 *337:8 0.000149488
4 *337:8 *1488:A 7.42621e-05
5 *337:8 *338:8 0.000269994
6 *337:8 *467:31 0.000191279
7 *335:16 *337:8 5.67058e-05
*RES
1 *1624:Y *337:8 27.93 
2 *337:8 *1625:B2 23 
*END

*D_NET *338 0.0101699
*CONN
*I *1626:B1 I *D sky130_fd_sc_hd__a22o_1
*I *1677:A0 I *D sky130_fd_sc_hd__mux2_1
*I *1625:X O *D sky130_fd_sc_hd__a32o_1
*CAP
1 *1626:B1 0
2 *1677:A0 0
3 *1625:X 0.000198569
4 *338:36 0.000633283
5 *338:26 0.00235522
6 *338:10 0.00220711
7 *338:8 0.000683739
8 *338:10 *339:53 0
9 *338:10 *461:64 2.22503e-05
10 *338:26 *1649:B1 1.41129e-05
11 *338:26 *383:78 4.36552e-05
12 *338:26 *488:14 0.000521227
13 *338:26 *488:48 0.000103532
14 *338:36 *1649:B1 0.000313785
15 *338:36 *1782:CLK 0
16 *338:36 *360:41 0
17 *338:36 *383:122 0.000189336
18 *338:36 *442:10 0
19 *1654:A2 *338:26 0.000135616
20 *1787:D *338:36 4.84129e-06
21 *122:10 *338:26 5.58003e-05
22 *163:51 *338:10 0
23 *259:141 *338:26 0.000149193
24 *266:51 *338:26 0.000179494
25 *266:59 *338:26 0.000583886
26 *303:59 *338:26 0.000108985
27 *314:40 *338:10 0.000296399
28 *314:48 *338:10 5.75756e-06
29 *314:48 *338:26 4.19479e-05
30 *314:65 *338:26 0.000162254
31 *314:109 *338:36 0.000837291
32 *334:29 *338:10 5.26101e-05
33 *337:8 *338:8 0.000269994
*RES
1 *1625:X *338:8 41.0036 
2 *338:8 *338:10 10.3571 
3 *338:10 *338:26 46.7757 
4 *338:26 *338:36 45.3907 
5 *338:36 *1677:A0 23 
6 *338:10 *1626:B1 38 
*END

*D_NET *339 0.0353733
*CONN
*I *1628:S I *D sky130_fd_sc_hd__mux2_1
*I *1636:S I *D sky130_fd_sc_hd__mux2_1
*I *1701:B1 I *D sky130_fd_sc_hd__o211ai_1
*I *1703:C1 I *D sky130_fd_sc_hd__o211ai_1
*I *1630:S I *D sky130_fd_sc_hd__mux2_1
*I *1640:S I *D sky130_fd_sc_hd__mux2_1
*I *1642:S I *D sky130_fd_sc_hd__mux2_1
*I *1632:S I *D sky130_fd_sc_hd__mux2_1
*I *1634:S I *D sky130_fd_sc_hd__mux2_1
*I *1638:S I *D sky130_fd_sc_hd__mux2_1
*I *1627:Y O *D sky130_fd_sc_hd__nand2_8
*CAP
1 *1628:S 0.000313731
2 *1636:S 0
3 *1701:B1 2.32701e-05
4 *1703:C1 0
5 *1630:S 0
6 *1640:S 0
7 *1642:S 0
8 *1632:S 0
9 *1634:S 0.000162042
10 *1638:S 0.00018667
11 *1627:Y 3.85349e-05
12 *339:164 0.000911403
13 *339:154 0.00178978
14 *339:139 0.00103896
15 *339:119 0.000722541
16 *339:104 0.000214422
17 *339:88 0.000534716
18 *339:69 0.00133809
19 *339:61 0.00177653
20 *339:53 0.0020755
21 *339:26 0.00210468
22 *339:22 0.00341295
23 *339:20 0.00375472
24 *339:16 0.00269926
25 *339:10 0.000621281
26 *339:6 0.000668021
27 *1628:S *381:90 5.55278e-05
28 *1628:S *415:27 0
29 *1628:S *459:10 0
30 *1628:S *483:12 2.47094e-05
31 *1628:S *483:26 0.000313255
32 *1634:S *1635:A 0
33 *1634:S *1747:A 0.000164291
34 *1634:S *387:125 5.50106e-05
35 *1634:S *480:16 9.84794e-05
36 *1638:S *345:10 3.673e-05
37 *1638:S *387:29 5.79559e-05
38 *1638:S *413:24 0
39 *1638:S *486:53 2.93431e-05
40 *1701:B1 *1697:A 5.3304e-05
41 *1701:B1 *1701:A1 5.3304e-05
42 *339:10 *494:23 2.75733e-06
43 *339:10 *494:32 4.58715e-05
44 *339:10 *494:43 1.43921e-05
45 *339:16 *1858:A 0
46 *339:16 *359:18 0
47 *339:16 *361:22 4.77164e-06
48 *339:16 *388:163 0
49 *339:16 *494:23 3.34818e-06
50 *339:20 *1722:A 0
51 *339:20 *359:18 0
52 *339:20 *359:22 0
53 *339:20 *381:116 0
54 *339:20 *381:122 0
55 *339:20 *388:163 0
56 *339:20 *450:12 2.79004e-05
57 *339:20 *470:8 0
58 *339:22 *450:12 5.47808e-05
59 *339:26 *1641:A 0.000620663
60 *339:26 *1744:A 9.13289e-05
61 *339:26 *384:73 0.000226219
62 *339:26 *387:10 0.000100486
63 *339:26 *486:33 8.06804e-06
64 *339:53 *1822:A 0
65 *339:53 *468:53 8.48502e-06
66 *339:61 *360:113 7.03869e-05
67 *339:61 *391:14 0.000139647
68 *339:61 *468:53 2.17486e-05
69 *339:69 *1642:A0 9.84851e-05
70 *339:69 *1643:A 6.90596e-05
71 *339:69 *384:37 0.000614497
72 *339:88 *1747:A 3.70187e-05
73 *339:88 *384:12 2.55642e-05
74 *339:88 *384:14 0.000851211
75 *339:88 *419:29 2.93747e-05
76 *339:88 *481:14 1.44546e-05
77 *339:104 *486:33 0
78 *339:119 *381:116 9.78729e-06
79 *339:119 *430:8 0.000313431
80 *339:119 *482:14 3.46255e-05
81 *339:119 *482:32 0.000466866
82 *339:139 *1700:A 7.43941e-05
83 *339:139 *377:6 0.000144494
84 *339:139 *377:38 0.000437348
85 *339:139 *381:100 6.17437e-06
86 *339:139 *381:110 2.64616e-05
87 *339:139 *384:153 0.000351394
88 *339:139 *400:22 0.000103272
89 *339:154 *1665:A 0.000173443
90 *339:154 *381:90 0.000196832
91 *339:154 *384:153 0.000433881
92 *339:154 *390:78 0
93 *339:154 *415:27 0
94 *339:154 *497:8 0.000450086
95 *339:164 *1636:A1 5.90675e-06
96 *339:164 *390:70 0.000255723
97 *339:164 *479:12 4.01516e-05
98 product[9] *339:88 0
99 *1618:B2 *339:53 5.12254e-05
100 *1620:B1 *339:61 2.43944e-05
101 *1675:A0 *339:61 0.000322286
102 *1700:B *339:6 1.83327e-05
103 *1700:B *339:139 4.03149e-05
104 *1703:A2 *339:10 5.55283e-05
105 *1703:A2 *339:16 5.1916e-05
106 *1805:D *339:164 9.41584e-05
107 *40:10 *339:16 5.80963e-05
108 *72:10 *339:26 5.58003e-05
109 *74:10 *339:164 5.67058e-05
110 *78:10 *339:154 0
111 *98:8 *339:20 2.71586e-05
112 *131:8 *1628:S 7.6144e-05
113 *131:8 *339:154 9.03784e-05
114 *148:45 *339:53 9.17998e-05
115 *152:29 *339:53 0.000219383
116 *152:39 *339:53 5.3304e-05
117 *153:27 *339:53 0.000106427
118 *207:10 *339:53 1.01436e-05
119 *218:23 *339:53 0.000185755
120 *221:10 *339:53 0
121 *221:23 *339:53 3.69473e-05
122 *256:72 *339:10 2.46933e-05
123 *263:43 *339:53 0.000199242
124 *266:28 *339:104 0.000402418
125 *314:25 *339:53 0.000718863
126 *314:40 *1638:S 0
127 *314:40 *339:53 0
128 *334:29 *339:61 0.000268123
129 *338:10 *339:53 0
*RES
1 *1627:Y *339:6 23.6214 
2 *339:6 *339:10 18.6664 
3 *339:10 *339:16 7.72643 
4 *339:16 *339:20 42.9643 
5 *339:20 *339:22 34.4479 
6 *339:22 *339:26 34.2021 
7 *339:26 *1638:S 41.6457 
8 *339:26 *339:53 36.7914 
9 *339:53 *339:61 46.82 
10 *339:61 *339:69 27.0971 
11 *339:69 *1634:S 41.8529 
12 *339:69 *339:88 27.7393 
13 *339:88 *1632:S 23 
14 *339:61 *1642:S 23 
15 *339:22 *339:104 35.4271 
16 *339:104 *1640:S 23 
17 *339:16 *339:119 27.2421 
18 *339:119 *1630:S 23 
19 *339:10 *1703:C1 38 
20 *339:6 *339:139 27.035 
21 *339:139 *1701:B1 38.6214 
22 *339:139 *339:154 16.0536 
23 *339:154 *339:164 29.0236 
24 *339:164 *1636:S 23 
25 *339:154 *1628:S 45.0636 
*END

*D_NET *340 0.00017903
*CONN
*I *1629:A I *D sky130_fd_sc_hd__clkbuf_1
*I *1628:X O *D sky130_fd_sc_hd__mux2_1
*CAP
1 *1629:A 6.11622e-05
2 *1628:X 6.11622e-05
3 *1629:A *483:12 0
4 *1629:A *483:26 5.67058e-05
*RES
1 *1628:X *1629:A 47.4707 
*END

*D_NET *341 0.000432125
*CONN
*I *1631:A I *D sky130_fd_sc_hd__clkbuf_1
*I *1630:X O *D sky130_fd_sc_hd__mux2_1
*CAP
1 *1631:A 0.00010804
2 *1630:X 6.4883e-05
3 *341:8 0.000172923
4 *341:8 *384:153 8.62783e-05
5 *341:8 *400:10 0
*RES
1 *1630:X *341:8 39.2014 
2 *341:8 *1631:A 39.8229 
*END

*D_NET *342 0.00063425
*CONN
*I *1633:A I *D sky130_fd_sc_hd__clkbuf_1
*I *1632:X O *D sky130_fd_sc_hd__mux2_1
*CAP
1 *1633:A 0
2 *1632:X 0.000261806
3 *342:10 0.000261806
4 *342:10 *1632:A0 2.30292e-05
5 *342:10 *1803:CLK 0
6 *342:10 *384:12 0
7 *342:10 *446:8 0
8 *342:10 *481:14 0
9 *129:8 *342:10 8.76088e-05
*RES
1 *1632:X *342:10 43.3443 
2 *342:10 *1633:A 38 
*END

*D_NET *343 0.000154088
*CONN
*I *1635:A I *D sky130_fd_sc_hd__clkbuf_1
*I *1634:X O *D sky130_fd_sc_hd__mux2_1
*CAP
1 *1635:A 6.09002e-05
2 *1634:X 6.09002e-05
3 *1635:A *435:6 3.22879e-05
4 *1634:S *1635:A 0
*RES
1 *1634:X *1635:A 47.4707 
*END

*D_NET *344 0.000495397
*CONN
*I *1637:A I *D sky130_fd_sc_hd__clkbuf_1
*I *1636:X O *D sky130_fd_sc_hd__mux2_1
*CAP
1 *1637:A 0
2 *1636:X 0.000141832
3 *344:10 0.000141832
4 *344:10 *359:16 4.23817e-05
5 *344:10 *479:16 3.06338e-05
6 *256:55 *344:10 0.000138718
*RES
1 *1636:X *344:10 41.0036 
2 *344:10 *1637:A 38 
*END

*D_NET *345 0.00109656
*CONN
*I *1639:A I *D sky130_fd_sc_hd__clkbuf_1
*I *1638:X O *D sky130_fd_sc_hd__mux2_1
*CAP
1 *1639:A 8.74002e-05
2 *1638:X 0.000188665
3 *345:10 0.000276065
4 *345:10 *387:29 0.000167337
5 *345:10 *413:24 5.27729e-05
6 *345:10 *486:53 0.000189848
7 *1638:S *345:10 3.673e-05
8 *126:12 *1639:A 9.77405e-05
*RES
1 *1638:X *345:10 42.6607 
2 *345:10 *1639:A 39.9471 
*END

*D_NET *346 0.00195543
*CONN
*I *1641:A I *D sky130_fd_sc_hd__clkbuf_1
*I *1640:X O *D sky130_fd_sc_hd__mux2_1
*CAP
1 *1641:A 0.000166578
2 *1640:X 0.000196742
3 *346:8 0.00036332
4 *1641:A *1744:A 8.28951e-05
5 *1641:A *486:33 0.000176471
6 *346:8 *1823:A 0
7 *346:8 *486:33 0.000348764
8 *339:26 *1641:A 0.000620663
*RES
1 *1640:X *346:8 42.7229 
2 *346:8 *1641:A 45.3121 
*END

*D_NET *347 0.000177535
*CONN
*I *1643:A I *D sky130_fd_sc_hd__clkbuf_1
*I *1642:X O *D sky130_fd_sc_hd__mux2_1
*CAP
1 *1643:A 5.42375e-05
2 *1642:X 5.42375e-05
3 *339:69 *1643:A 6.90596e-05
*RES
1 *1642:X *1643:A 47.4707 
*END

*D_NET *348 0.00055745
*CONN
*I *1645:B1 I *D sky130_fd_sc_hd__a2bb2o_1
*I *1644:Y O *D sky130_fd_sc_hd__o21ai_1
*CAP
1 *1645:B1 0
2 *1644:Y 0.000143401
3 *348:10 0.000143401
4 *348:10 *1645:B2 0.000111609
5 *1644:A1 *348:10 4.9662e-05
6 *173:46 *348:10 0.000109377
*RES
1 *1644:Y *348:10 40.6514 
2 *348:10 *1645:B1 38 
*END

*D_NET *349 0.0143602
*CONN
*I *1679:A0 I *D sky130_fd_sc_hd__mux2_1
*I *1647:B1 I *D sky130_fd_sc_hd__a221o_1
*I *1645:X O *D sky130_fd_sc_hd__a2bb2o_1
*CAP
1 *1679:A0 0
2 *1647:B1 0
3 *1645:X 0.000829618
4 *349:41 0.00238296
5 *349:26 0.000298028
6 *349:16 0.00385777
7 *349:12 0.0020064
8 *349:12 *383:44 0.000176869
9 *349:26 *350:20 0.000157863
10 *349:26 *389:16 2.14538e-05
11 *349:41 *1438:A4 7.5938e-05
12 *349:41 *1577:C_N 6.53505e-05
13 *349:41 *384:108 0
14 *349:41 *386:64 4.81853e-06
15 *349:41 *389:174 0
16 *349:41 *462:42 0.000239869
17 *349:41 *463:55 0.000908756
18 *1482:B *349:12 0
19 *1565:A2 *349:41 0.000407547
20 *1569:B1 *349:41 7.51142e-05
21 *1645:A1_N *349:12 0.000100374
22 *149:68 *349:41 0.000214254
23 *149:104 *349:41 1.06805e-05
24 *153:39 *349:26 9.23705e-06
25 *153:69 *349:41 8.00205e-05
26 *159:58 *349:41 0
27 *161:98 *349:41 0.000159276
28 *162:126 *349:41 5.09387e-06
29 *163:49 *349:16 0.000466933
30 *163:49 *349:26 4.44377e-05
31 *163:49 *349:41 3.74068e-05
32 *240:20 *349:41 5.77147e-05
33 *259:47 *349:16 0.000455519
34 *259:47 *349:41 0.00113085
35 *263:43 *349:26 2.26497e-05
36 *280:12 *349:41 2.19562e-05
37 *282:8 *349:41 3.53893e-05
*RES
1 *1645:X *349:12 49.8209 
2 *349:12 *349:16 11.3563 
3 *349:16 *349:26 32.2015 
4 *349:26 *1647:B1 23 
5 *349:16 *349:41 43.8153 
6 *349:41 *1679:A0 38 
*END

*D_NET *350 0.00716924
*CONN
*I *1647:C1 I *D sky130_fd_sc_hd__a221o_1
*I *1646:X O *D sky130_fd_sc_hd__and3_1
*CAP
1 *1647:C1 0
2 *1646:X 0.000192354
3 *350:20 0.00263923
4 *350:12 0.00283158
5 *350:12 *400:34 9.94233e-05
6 *350:20 *386:12 0
7 *350:20 *491:30 0.00062065
8 *153:39 *350:20 2.26497e-05
9 *163:49 *350:20 0.000116761
10 *174:14 *350:20 0.000243871
11 *174:27 *350:20 4.45282e-05
12 *176:16 *350:12 0.000175628
13 *193:71 *350:12 0
14 *255:92 *350:20 2.47015e-05
15 *266:123 *350:20 0
16 *266:131 *350:20 0
17 *349:26 *350:20 0.000157863
*RES
1 *1646:X *350:12 49.5318 
2 *350:12 *350:20 29.216 
3 *350:20 *1647:C1 23 
*END

*D_NET *351 0.00187382
*CONN
*I *1649:B1 I *D sky130_fd_sc_hd__a31o_1
*I *1648:X O *D sky130_fd_sc_hd__a22o_1
*CAP
1 *1649:B1 0.000153124
2 *1648:X 0.000159707
3 *351:8 0.000312831
4 *351:8 *383:137 0.000336805
5 *1657:A2 *1649:B1 7.28721e-05
6 *1657:A2 *351:8 2.05503e-05
7 *1657:A3 *1649:B1 9.71428e-05
8 *118:10 *1649:B1 1.41077e-05
9 *266:51 *1649:B1 5.3304e-05
10 *303:20 *351:8 0.000325474
11 *338:26 *1649:B1 1.41129e-05
12 *338:36 *1649:B1 0.000313785
*RES
1 *1648:X *351:8 42.7229 
2 *351:8 *1649:B1 42.4329 
*END

*D_NET *352 0.00226197
*CONN
*I *1651:B1 I *D sky130_fd_sc_hd__a31o_1
*I *1650:X O *D sky130_fd_sc_hd__a22o_1
*CAP
1 *1651:B1 3.15638e-05
2 *1650:X 0.000675697
3 *352:10 0.000707261
4 *1651:B1 *1793:CLK 0.000228903
5 *352:10 *1652:A1 1.86239e-05
6 *352:10 *383:44 2.46399e-05
7 *352:10 *396:16 0
8 *352:10 *489:8 8.57485e-05
9 *352:10 *489:14 2.64616e-05
10 *352:10 *489:31 6.86773e-05
11 *352:10 *490:20 0.000147656
12 *1650:B1 *352:10 1.61385e-05
13 *1651:A2 *352:10 0
14 *1651:A3 *1651:B1 0.000230604
15 *1655:A2 *352:10 0
16 *1655:A3 *352:10 0
17 *119:10 *352:10 0
*RES
1 *1650:X *352:10 47.9843 
2 *352:10 *1651:B1 40.5271 
*END

*D_NET *353 0.00112019
*CONN
*I *1653:B1 I *D sky130_fd_sc_hd__a31o_1
*I *1652:X O *D sky130_fd_sc_hd__a22o_1
*CAP
1 *1653:B1 0
2 *1652:X 0.000323426
3 *353:10 0.000323426
4 *353:10 *383:86 1.12863e-05
5 *353:10 *413:24 0.000367881
6 *353:10 *490:20 9.41704e-05
7 *67:10 *353:10 0
*RES
1 *1652:X *353:10 44.1729 
2 *353:10 *1653:B1 38 
*END

*D_NET *354 0.00147943
*CONN
*I *1655:B1 I *D sky130_fd_sc_hd__a31o_1
*I *1654:X O *D sky130_fd_sc_hd__a22o_1
*CAP
1 *1655:B1 0
2 *1654:X 0.000422419
3 *354:10 0.000422419
4 *354:10 *1654:A1 9.58714e-05
5 *354:10 *382:82 4.39152e-05
6 *354:10 *394:10 0.00034475
7 *354:10 *487:14 7.02388e-05
8 *314:65 *354:10 7.9819e-05
*RES
1 *1654:X *354:10 46.2029 
2 *354:10 *1655:B1 38 
*END

*D_NET *355 0.00160875
*CONN
*I *1657:B1 I *D sky130_fd_sc_hd__a31o_1
*I *1656:X O *D sky130_fd_sc_hd__a22o_1
*CAP
1 *1657:B1 0
2 *1656:X 0.000385554
3 *355:10 0.000385554
4 *355:10 *383:137 3.8586e-05
5 *355:10 *393:12 0.00033602
6 *355:10 *486:8 0.000186225
7 *355:10 *486:18 0.000266271
8 *1657:A2 *355:10 1.05441e-05
*RES
1 *1656:X *355:10 45.7264 
2 *355:10 *1657:B1 38 
*END

*D_NET *356 0.00500862
*CONN
*I *1659:B1 I *D sky130_fd_sc_hd__a31o_1
*I *1658:X O *D sky130_fd_sc_hd__a22o_1
*CAP
1 *1659:B1 0
2 *1658:X 0.000835632
3 *356:8 0.000835632
4 *1578:A *356:8 5.5792e-05
5 *163:6 *356:8 0.000273584
6 *163:111 *356:8 0.000571672
7 *279:6 *356:8 0.000515872
8 *279:8 *356:8 0.00111266
9 *303:133 *356:8 0.000807774
*RES
1 *1658:X *356:8 47.4636 
2 *356:8 *1659:B1 23 
*END

*D_NET *357 0.00198192
*CONN
*I *1661:B1 I *D sky130_fd_sc_hd__a31o_1
*I *1660:X O *D sky130_fd_sc_hd__a22o_1
*CAP
1 *1661:B1 0.000149225
2 *1660:X 0.000399974
3 *357:14 0.000549199
4 *357:14 *386:64 3.39278e-05
5 *357:14 *485:32 1.1308e-05
6 *1658:B1 *357:14 4.30894e-05
7 *1660:A2 *357:14 4.67488e-05
8 *1660:B1 *357:14 5.56279e-05
9 *1661:A3 *1661:B1 2.38465e-05
10 *160:35 *357:14 0.000175903
11 *238:10 *1661:B1 1.04193e-05
12 *266:123 *357:14 0.000113473
13 *266:131 *357:14 0.000323815
14 *278:10 *1661:B1 3.97479e-05
15 *303:127 *357:14 5.61255e-06
*RES
1 *1660:X *357:14 49.5527 
2 *357:14 *1661:B1 47.9989 
*END

*D_NET *358 0.00259652
*CONN
*I *1895:A I *D sky130_fd_sc_hd__clkbuf_2
*I *1877:A I *D sky130_fd_sc_hd__clkbuf_1
*I *1662:Y O *D sky130_fd_sc_hd__nor4b_1
*CAP
1 *1895:A 0
2 *1877:A 0
3 *1662:Y 0.000310322
4 *358:29 0.000338069
5 *358:14 0.000465883
6 *358:8 0.000438137
7 *358:8 *359:18 7.34544e-05
8 *358:8 *390:78 0
9 *358:8 *458:8 4.334e-05
10 *358:14 *384:143 0.000106382
11 *358:29 *1773:CLK 0.000194318
12 *358:29 *381:90 0
13 *358:29 *384:143 7.43114e-05
14 *358:29 *390:78 0.000219891
15 *358:29 *483:26 2.52981e-05
16 *1698:A2 *358:8 0.00016524
17 *97:10 *358:8 0.000141879
*RES
1 *1662:Y *358:8 45.1879 
2 *358:8 *358:14 17.9 
3 *358:14 *1877:A 23 
4 *358:14 *358:29 37.6229 
5 *358:29 *1895:A 23 
*END

*D_NET *359 0.0411118
*CONN
*I *1693:S I *D sky130_fd_sc_hd__mux2_1
*I *1685:S I *D sky130_fd_sc_hd__mux2_1
*I *1689:S I *D sky130_fd_sc_hd__mux2_1
*I *1683:S I *D sky130_fd_sc_hd__mux2_1
*I *1691:S I *D sky130_fd_sc_hd__mux2_1
*I *1664:A I *D sky130_fd_sc_hd__buf_4
*I *1687:S I *D sky130_fd_sc_hd__mux2_1
*I *1663:Y O *D sky130_fd_sc_hd__nand2_4
*CAP
1 *1693:S 0
2 *1685:S 0.0004509
3 *1689:S 8.45665e-05
4 *1683:S 4.01986e-05
5 *1691:S 0.000393342
6 *1664:A 0.000131807
7 *1687:S 0.000134794
8 *1663:Y 0.000156001
9 *359:114 0.000309551
10 *359:95 0.00562588
11 *359:49 0.00329437
12 *359:32 0.00665358
13 *359:22 0.00405432
14 *359:20 0.0004485
15 *359:18 0.00238903
16 *359:16 0.00298819
17 *359:8 0.00571997
18 *1664:A *360:12 0.000100061
19 *1683:S *415:12 1.59094e-05
20 *1685:S *1839:A 2.33476e-05
21 *1685:S *382:30 0
22 *1685:S *384:108 2.27056e-05
23 *1687:S *439:10 0.000134981
24 *1687:S *488:48 1.43557e-05
25 *1689:S *1776:CLK 0.000185434
26 *1691:S *1691:A1 5.56279e-05
27 *1691:S *360:12 2.67164e-05
28 *1691:S *360:113 0.00063451
29 *1691:S *486:53 1.7679e-05
30 *359:8 *360:87 0
31 *359:8 *381:71 3.3123e-05
32 *359:8 *420:29 3.70187e-05
33 *359:8 *424:12 0
34 *359:16 *360:87 0
35 *359:16 *384:143 0.000141954
36 *359:16 *424:12 0
37 *359:18 *1770:CLK 0
38 *359:18 *388:122 0
39 *359:18 *388:139 0
40 *359:18 *390:78 0
41 *359:18 *432:8 4.334e-05
42 *359:22 *1722:A 0.000458985
43 *359:22 *388:105 0
44 *359:22 *388:122 0
45 *359:22 *450:12 2.54046e-05
46 *359:22 *487:59 0.000584153
47 *359:32 *1722:A 2.11066e-05
48 *359:32 *397:18 0
49 *359:32 *477:12 0.000116709
50 *359:32 *487:59 2.33476e-05
51 *359:32 *488:48 4.15283e-06
52 *359:32 *491:30 0.000267043
53 *359:49 *360:24 0
54 *359:49 *360:113 9.4698e-06
55 *359:49 *382:72 0
56 *359:49 *395:24 0.000158239
57 *359:95 *384:108 0.00059617
58 *359:95 *384:135 0.000562255
59 *359:114 *381:12 0.000681684
60 *359:114 *385:26 0
61 *359:114 *389:90 0.000249909
62 *359:114 *391:14 0
63 *1605:A2 *359:18 9.17924e-05
64 *1698:A2 *359:18 8.7975e-05
65 *1703:A2 *359:18 8.5455e-05
66 *83:10 *359:18 9.98891e-05
67 *97:10 *359:18 7.28526e-05
68 *98:8 *359:18 0.000112396
69 *136:10 *359:18 0
70 *149:153 *359:95 4.04052e-05
71 *150:95 *359:18 9.85586e-06
72 *163:124 *359:16 0
73 *254:111 *359:95 0.0013619
74 *256:55 *359:16 0
75 *256:72 *359:18 0.000146826
76 *257:10 *359:18 8.08204e-05
77 *259:47 *359:95 2.24182e-05
78 *259:135 *359:32 0.00010109
79 *266:59 *1687:S 0
80 *266:59 *359:32 0
81 *278:123 *359:18 0.000350514
82 *278:125 *359:18 0.000211391
83 *321:21 *359:18 0
84 *339:16 *359:18 0
85 *339:20 *359:18 0
86 *339:20 *359:22 0
87 *344:10 *359:16 4.23817e-05
88 *358:8 *359:18 7.34544e-05
*RES
1 *1663:Y *359:8 40.7861 
2 *359:8 *359:16 42.2939 
3 *359:16 *359:18 50.8536 
4 *359:18 *359:20 1.09786 
5 *359:20 *359:22 8.94857 
6 *359:22 *359:32 29.6268 
7 *359:32 *1687:S 40.4339 
8 *359:32 *359:49 22.1388 
9 *359:49 *1664:A 40.5271 
10 *359:49 *1691:S 48.4607 
11 *359:22 *1683:S 38.6214 
12 *359:20 *1689:S 40.0507 
13 *359:8 *359:95 20.3349 
14 *359:95 *1685:S 47.064 
15 *359:95 *359:114 32.1246 
16 *359:114 *1693:S 23 
*END

*D_NET *360 0.0488706
*CONN
*I *1679:S I *D sky130_fd_sc_hd__mux2_1
*I *1681:S I *D sky130_fd_sc_hd__mux2_1
*I *1674:B1 I *D sky130_fd_sc_hd__a2bb2o_1
*I *1667:A1 I *D sky130_fd_sc_hd__o21ai_1
*I *1675:S I *D sky130_fd_sc_hd__mux2_1
*I *1669:S I *D sky130_fd_sc_hd__mux2_1
*I *1671:A1 I *D sky130_fd_sc_hd__a22o_1
*I *1668:B1 I *D sky130_fd_sc_hd__a32o_1
*I *1672:S I *D sky130_fd_sc_hd__mux2_1
*I *1677:S I *D sky130_fd_sc_hd__mux2_1
*I *1664:X O *D sky130_fd_sc_hd__buf_4
*CAP
1 *1679:S 0.000294679
2 *1681:S 0
3 *1674:B1 0.000140559
4 *1667:A1 7.98445e-05
5 *1675:S 0.000177959
6 *1669:S 0
7 *1671:A1 0.000289441
8 *1668:B1 0.000215007
9 *1672:S 0.00041581
10 *1677:S 0
11 *1664:X 0.00015193
12 *360:178 0.00029792
13 *360:168 0.00131041
14 *360:162 0.00216575
15 *360:160 0.00217206
16 *360:147 0.00105341
17 *360:132 0.00126306
18 *360:113 0.00250145
19 *360:87 0.0011237
20 *360:74 0.00104927
21 *360:72 0.0055505
22 *360:45 0.00603633
23 *360:41 0.000512704
24 *360:24 0.00382097
25 *360:12 0.00485923
26 *1667:A1 *361:61 6.17437e-06
27 *1668:B1 *1668:B2 0.000313931
28 *1668:B1 *458:20 3.19942e-05
29 *1671:A1 *425:16 3.28357e-06
30 *1672:S *1673:A 0.000143655
31 *1672:S *382:113 0.000491451
32 *1672:S *383:122 0
33 *1672:S *407:14 0
34 *1672:S *440:6 5.67058e-05
35 *1674:B1 *361:61 0.000128159
36 *1679:S *1679:A1 4.36937e-05
37 *1679:S *367:10 5.33272e-05
38 *1679:S *441:10 1.84917e-05
39 *360:12 *1795:CLK 6.24611e-05
40 *360:24 *1777:CLK 0.000106693
41 *360:24 *1793:CLK 1.63351e-05
42 *360:24 *1838:A 0
43 *360:24 *1893:A 0
44 *360:24 *382:72 0
45 *360:24 *382:82 0.000127551
46 *360:24 *382:92 0.00186717
47 *360:24 *394:10 0.000138791
48 *360:24 *395:24 0.000200651
49 *360:24 *408:28 0.000556605
50 *360:41 *1838:A 0.000186385
51 *360:41 *363:8 0.000181182
52 *360:41 *442:10 4.67201e-05
53 *360:41 *454:6 9.84794e-05
54 *360:72 *395:24 2.6427e-05
55 *360:72 *397:18 4.57385e-05
56 *360:72 *408:16 0
57 *360:87 *1668:B2 0.000171627
58 *360:87 *381:71 8.28789e-05
59 *360:87 *434:8 8.85189e-05
60 *360:113 *382:72 0
61 *360:113 *387:76 0.000322559
62 *360:113 *387:93 0.000327922
63 *360:113 *387:115 0
64 *360:113 *391:14 2.47097e-05
65 *360:113 *409:14 0
66 *360:113 *476:77 8.85189e-05
67 *360:132 *361:61 0.000119476
68 *360:132 *382:51 0
69 *360:132 *382:68 0.000147711
70 *360:132 *387:169 0
71 *360:132 *391:14 0
72 *360:147 *1813:CLK 6.25829e-05
73 *360:147 *361:61 0.000110913
74 *360:147 *382:51 0
75 *360:147 *391:14 0
76 *360:147 *426:10 0
77 *360:160 *1813:CLK 5.40337e-05
78 *360:160 *361:61 5.61255e-06
79 *360:162 *1831:A 7.4878e-05
80 *360:162 *383:25 0.000352212
81 *360:162 *392:22 0.0011146
82 *360:162 *474:14 8.16356e-05
83 *360:162 *474:25 0
84 *360:162 *475:8 4.98585e-05
85 *360:162 *475:14 8.64542e-05
86 *360:168 *416:6 3.46302e-05
87 *360:168 *416:21 6.4554e-05
88 *360:168 *441:10 2.75275e-06
89 *360:178 *367:10 2.5415e-05
90 *360:178 *389:174 0
91 *360:178 *416:21 0.000113044
92 *1583:B2 *360:162 8.52094e-06
93 *1617:B1_N *360:132 0
94 *1664:A *360:12 0.000100061
95 *1667:A2 *1667:A1 2.02517e-05
96 *1671:B1 *1671:A1 4.08219e-05
97 *1675:A0 *1675:S 0.000311814
98 *1675:A0 *360:113 0.000319905
99 *1691:S *360:12 2.67164e-05
100 *1691:S *360:113 0.00063451
101 *1780:D *360:168 3.7122e-06
102 *3:13 *360:24 0.000614177
103 *44:10 *360:87 9.77611e-05
104 *60:8 *1672:S 0
105 *71:8 *360:113 9.41891e-05
106 *86:10 *360:162 0.000195238
107 *111:10 *1672:S 3.53115e-05
108 *115:12 *360:132 9.92473e-05
109 *121:10 *360:24 3.33949e-05
110 *121:10 *360:113 6.10809e-05
111 *134:10 *360:132 6.90927e-05
112 *239:21 *360:162 0
113 *256:55 *360:87 0.000463437
114 *258:16 *360:72 3.87221e-06
115 *258:16 *360:87 0.000874492
116 *259:94 *360:72 1.02561e-05
117 *259:94 *360:87 0
118 *303:145 *360:162 9.73593e-05
119 *314:73 *360:24 0.000111656
120 *314:109 *360:41 7.19639e-05
121 *325:24 *360:41 0.000337645
122 *331:27 *360:132 0
123 *331:27 *360:160 1.31497e-05
124 *338:36 *360:41 0
125 *339:61 *360:113 7.03869e-05
126 *359:8 *360:87 0
127 *359:16 *360:87 0
128 *359:49 *360:24 0
129 *359:49 *360:113 9.4698e-06
*RES
1 *1664:X *360:12 41.045 
2 *360:12 *360:24 33.4556 
3 *360:24 *1677:S 38 
4 *360:24 *360:41 26.3721 
5 *360:41 *360:45 16.0254 
6 *360:45 *1672:S 48.2846 
7 *360:45 *360:72 43.9989 
8 *360:72 *360:74 15 
9 *360:74 *1668:B1 27.1946 
10 *360:74 *360:87 35.8593 
11 *360:87 *1671:A1 43.075 
12 *360:41 *1669:S 23 
13 *360:12 *360:113 48.1221 
14 *360:113 *1675:S 26.48 
15 *360:113 *360:132 34.6371 
16 *360:132 *1667:A1 39.4707 
17 *360:132 *360:147 17.9621 
18 *360:147 *1674:B1 26.3764 
19 *360:147 *360:160 23.7207 
20 *360:160 *360:162 37.8243 
21 *360:162 *360:168 25.0464 
22 *360:168 *360:178 35.1579 
23 *360:178 *1681:S 23 
24 *360:168 *1679:S 29.3593 
*END

*D_NET *361 0.0172798
*CONN
*I *1674:A2_N I *D sky130_fd_sc_hd__a2bb2o_1
*I *1666:A2 I *D sky130_fd_sc_hd__o21ai_1
*I *1665:X O *D sky130_fd_sc_hd__or4b_2
*CAP
1 *1674:A2_N 0
2 *1666:A2 0
3 *1665:X 0.000496326
4 *361:61 0.000433002
5 *361:42 0.00216568
6 *361:36 0.00230022
7 *361:22 0.0029478
8 *361:10 0.00287659
9 *361:10 *1662:D_N 6.07611e-06
10 *361:10 *1697:A 1.79384e-05
11 *361:10 *482:32 0.000136486
12 *361:10 *494:32 5.62433e-05
13 *361:10 *494:43 0.000192691
14 *361:22 *379:8 0.000135037
15 *361:22 *494:23 4.36547e-05
16 *361:36 *482:44 7.23571e-06
17 *361:36 *482:48 0.00023127
18 *361:42 *1667:B1 2.1819e-05
19 *361:42 *383:146 0.000125196
20 *361:42 *389:16 0.000585046
21 *361:42 *423:8 0.000695805
22 *361:42 *453:6 0.00027066
23 *361:61 *1667:B1 0.000113624
24 *361:61 *1813:CLK 6.17437e-06
25 *361:61 *382:51 2.64616e-05
26 *1441:B *361:36 0
27 *1467:A2 *361:22 0.000141217
28 *1472:B1 *361:36 9.2805e-06
29 *1472:B2 *361:36 0.000397596
30 *1528:B *361:42 0.000226931
31 *1666:A1 *361:42 1.03955e-05
32 *1667:A1 *361:61 6.17437e-06
33 *1667:A2 *361:61 3.18142e-05
34 *1674:B1 *361:61 0.000128159
35 *1790:D *361:42 9.91798e-05
36 *172:48 *361:36 8.33273e-05
37 *173:20 *361:42 0.000860933
38 *173:30 *361:42 0.000235687
39 *174:27 *361:22 0.000322145
40 *176:16 *361:36 8.21456e-06
41 *199:20 *361:36 4.22296e-05
42 *255:8 *361:42 4.67488e-05
43 *306:12 *361:42 1.56446e-05
44 *331:27 *361:61 0.000482334
45 *339:16 *361:22 4.77164e-06
46 *360:132 *361:61 0.000119476
47 *360:147 *361:61 0.000110913
48 *360:160 *361:61 5.61255e-06
*RES
1 *1665:X *361:10 47.2179 
2 *361:10 *361:22 45.0262 
3 *361:22 *361:36 34.6104 
4 *361:36 *361:42 40.2064 
5 *361:42 *1666:A2 23 
6 *361:42 *361:61 41.3929 
7 *361:61 *1674:A2_N 23 
*END

*D_NET *362 0.000388584
*CONN
*I *1667:B1 I *D sky130_fd_sc_hd__o21ai_1
*I *1666:Y O *D sky130_fd_sc_hd__o21ai_1
*CAP
1 *1667:B1 4.46259e-05
2 *1666:Y 4.46259e-05
3 *1667:B1 *423:8 3.91386e-05
4 *1666:A1 *1667:B1 0.000100061
5 *1667:A2 *1667:B1 2.46906e-05
6 *361:42 *1667:B1 2.1819e-05
7 *361:61 *1667:B1 0.000113624
*RES
1 *1666:Y *1667:B1 48.0714 
*END

*D_NET *363 0.00105113
*CONN
*I *1670:A I *D sky130_fd_sc_hd__clkbuf_1
*I *1669:X O *D sky130_fd_sc_hd__mux2_1
*CAP
1 *1670:A 0
2 *1669:X 0.000158145
3 *363:8 0.000158145
4 *363:8 *1838:A 0.000186385
5 *363:8 *442:10 0.000357402
6 *314:109 *363:8 9.87385e-06
7 *360:41 *363:8 0.000181182
*RES
1 *1669:X *363:8 28.7586 
2 *363:8 *1670:A 23 
*END

*D_NET *364 0.000375592
*CONN
*I *1673:A I *D sky130_fd_sc_hd__clkbuf_1
*I *1672:X O *D sky130_fd_sc_hd__mux2_1
*CAP
1 *1673:A 9.98244e-05
2 *1672:X 9.98244e-05
3 *1672:S *1673:A 0.000143655
4 *111:10 *1673:A 3.22879e-05
*RES
1 *1672:X *1673:A 49.045 
*END

*D_NET *365 0.000314614
*CONN
*I *1676:A I *D sky130_fd_sc_hd__clkbuf_1
*I *1675:X O *D sky130_fd_sc_hd__mux2_1
*CAP
1 *1676:A 0.000157307
2 *1675:X 0.000157307
*RES
1 *1675:X *1676:A 48.9 
*END

*D_NET *366 0.00157865
*CONN
*I *1678:A I *D sky130_fd_sc_hd__clkbuf_1
*I *1677:X O *D sky130_fd_sc_hd__mux2_1
*CAP
1 *1678:A 9.77448e-05
2 *1677:X 0.000364509
3 *366:10 0.000462254
4 *1678:A *1782:CLK 0.00010335
5 *366:10 *1782:CLK 8.4047e-05
6 *366:10 *383:122 0.00044909
7 *366:10 *486:8 0
8 *1782:D *1678:A 1.76557e-05
*RES
1 *1677:X *366:10 44.1107 
2 *366:10 *1678:A 39.9471 
*END

*D_NET *367 0.000519887
*CONN
*I *1680:A I *D sky130_fd_sc_hd__clkbuf_1
*I *1679:X O *D sky130_fd_sc_hd__mux2_1
*CAP
1 *1680:A 0
2 *1679:X 0.000220572
3 *367:10 0.000220572
4 *367:10 *416:21 0
5 *1679:S *367:10 5.33272e-05
6 *360:178 *367:10 2.5415e-05
*RES
1 *1679:X *367:10 41.8321 
2 *367:10 *1680:A 38 
*END

*D_NET *368 0.000403603
*CONN
*I *1682:A I *D sky130_fd_sc_hd__clkbuf_1
*I *1681:X O *D sky130_fd_sc_hd__mux2_1
*CAP
1 *1682:A 0.000201801
2 *1681:X 0.000201801
*RES
1 *1681:X *1682:A 49.8529 
*END

*D_NET *369 0.000831027
*CONN
*I *1684:A I *D sky130_fd_sc_hd__clkbuf_1
*I *1683:X O *D sky130_fd_sc_hd__mux2_1
*CAP
1 *1684:A 0
2 *1683:X 0.000255239
3 *369:10 0.000255239
4 *369:10 *1683:A0 9.11847e-06
5 *369:10 *388:94 4.69613e-05
6 *369:10 *388:105 4.08944e-05
7 *369:10 *487:59 0.000184702
8 *105:8 *369:10 3.88725e-05
*RES
1 *1683:X *369:10 44.1729 
2 *369:10 *1684:A 38 
*END

*D_NET *370 0.000198429
*CONN
*I *1686:A I *D sky130_fd_sc_hd__clkbuf_1
*I *1685:X O *D sky130_fd_sc_hd__mux2_1
*CAP
1 *1686:A 9.92145e-05
2 *1685:X 9.92145e-05
*RES
1 *1685:X *1686:A 47.9471 
*END

*D_NET *371 0.000188021
*CONN
*I *1688:A I *D sky130_fd_sc_hd__clkbuf_1
*I *1687:X O *D sky130_fd_sc_hd__mux2_1
*CAP
1 *1688:A 4.58081e-05
2 *1687:X 4.58081e-05
3 *1688:A *383:99 3.84486e-05
4 *1688:A *487:39 5.79559e-05
5 *1688:A *488:48 0
*RES
1 *1687:X *1688:A 47.4707 
*END

*D_NET *372 0.00118119
*CONN
*I *1690:A I *D sky130_fd_sc_hd__clkbuf_1
*I *1689:X O *D sky130_fd_sc_hd__mux2_1
*CAP
1 *1690:A 0
2 *1689:X 0.000220752
3 *372:12 0.000220752
4 *372:12 *1776:CLK 0.000486534
5 *372:12 *487:59 0.000139352
6 *102:8 *372:12 0.000113804
*RES
1 *1689:X *372:12 29.525 
2 *372:12 *1690:A 23 
*END

*D_NET *373 0.000365707
*CONN
*I *1692:A I *D sky130_fd_sc_hd__clkbuf_1
*I *1691:X O *D sky130_fd_sc_hd__mux2_1
*CAP
1 *1692:A 0.000182854
2 *1691:X 0.000182854
*RES
1 *1691:X *1692:A 49.3764 
*END

*D_NET *374 0.00115551
*CONN
*I *1694:A I *D sky130_fd_sc_hd__clkbuf_1
*I *1693:X O *D sky130_fd_sc_hd__mux2_1
*CAP
1 *1694:A 0.000355654
2 *1693:X 6.66531e-05
3 *374:8 0.000422307
4 *1694:A *1716:A 9.66585e-05
5 *1694:A *381:14 0.000141352
6 *374:8 *381:12 0
7 *374:8 *489:22 4.334e-05
8 *47:10 *1694:A 2.95423e-05
*RES
1 *1693:X *374:8 39.2014 
2 *374:8 *1694:A 45.2086 
*END

*D_NET *375 0.00216453
*CONN
*I *1702:A I *D sky130_fd_sc_hd__nand2_1
*I *1698:B1 I *D sky130_fd_sc_hd__o21ai_1
*I *1699:A2 I *D sky130_fd_sc_hd__o21ai_1
*I *1697:X O *D sky130_fd_sc_hd__or4_1
*CAP
1 *1702:A 0.000113117
2 *1698:B1 3.23408e-05
3 *1699:A2 0
4 *1697:X 0.000252645
5 *375:14 9.60735e-05
6 *375:12 0.00017685
7 *375:10 0.000252645
8 *1698:B1 *1698:A1 3.24141e-05
9 *1698:B1 *1699:A1 1.12349e-05
10 *1698:B1 *1699:B1 0.000108031
11 *1698:B1 *422:14 2.46906e-05
12 *1702:A *1699:B1 5.47983e-06
13 *1702:A *1702:B 5.56356e-05
14 *1702:A *422:14 6.34941e-05
15 *375:10 *1662:D_N 0.000127171
16 *375:10 *1697:A 5.27117e-05
17 *375:10 *378:12 0.000337644
18 *375:10 *390:78 0.000187612
19 *375:14 *1699:B1 4.93812e-05
20 *375:14 *422:14 0.00018536
*RES
1 *1697:X *375:10 43.8207 
2 *375:10 *375:12 15 
3 *375:12 *375:14 2.05071 
4 *375:14 *1699:A2 23 
5 *375:14 *1698:B1 24.595 
6 *375:12 *1702:A 26.045 
*END

*D_NET *376 0.000525279
*CONN
*I *1699:B1 I *D sky130_fd_sc_hd__o21ai_1
*I *1698:Y O *D sky130_fd_sc_hd__o21ai_1
*CAP
1 *1699:B1 7.98114e-05
2 *1698:Y 7.98114e-05
3 *1699:B1 *1698:A1 1.358e-05
4 *1698:B1 *1699:B1 0.000108031
5 *1702:A *1699:B1 5.47983e-06
6 *97:10 *1699:B1 0.000189184
7 *375:14 *1699:B1 4.93812e-05
*RES
1 *1698:Y *1699:B1 49.0243 
*END

*D_NET *377 0.0045984
*CONN
*I *1701:A2 I *D sky130_fd_sc_hd__o211ai_1
*I *1704:A2 I *D sky130_fd_sc_hd__o21ai_1
*I *1705:B1_N I *D sky130_fd_sc_hd__a21bo_1
*I *1700:X O *D sky130_fd_sc_hd__or2_1
*CAP
1 *1701:A2 0
2 *1704:A2 0
3 *1705:B1_N 0
4 *1700:X 0.000100025
5 *377:38 0.000260472
6 *377:18 0.000568191
7 *377:10 0.00078179
8 *377:6 0.000574097
9 *377:10 *381:110 0.000110127
10 *377:10 *384:153 1.46331e-05
11 *377:18 *1858:A 0.000144494
12 *377:18 *381:110 0.000339256
13 *377:18 *381:116 5.3304e-05
14 *377:18 *430:8 9.88386e-05
15 *377:38 *1665:A 1.13812e-05
16 *377:38 *495:38 1.16814e-05
17 *1705:A2 *377:18 0.000182832
18 *40:10 *377:18 0.000312903
19 *94:10 *377:18 0.000310647
20 *95:8 *377:18 0.000141888
21 *339:139 *377:6 0.000144494
22 *339:139 *377:38 0.000437348
*RES
1 *1700:X *377:6 24.5743 
2 *377:6 *377:10 19.0186 
3 *377:10 *377:18 30.37 
4 *377:18 *1705:B1_N 23 
5 *377:10 *1704:A2 38 
6 *377:6 *377:38 35.8207 
7 *377:38 *1701:A2 23 
*END

*D_NET *378 0.00190672
*CONN
*I *1702:B I *D sky130_fd_sc_hd__nand2_1
*I *1701:Y O *D sky130_fd_sc_hd__o211ai_1
*CAP
1 *1702:B 1.55776e-05
2 *1701:Y 0.000395898
3 *378:12 0.000411476
4 *1702:B *422:14 5.56356e-05
5 *378:12 *1665:B 0.000225412
6 *378:12 *1697:A 0.000404469
7 *378:12 *495:61 4.96811e-06
8 *1702:A *1702:B 5.56356e-05
9 *375:10 *378:12 0.000337644
*RES
1 *1701:Y *378:12 47.6529 
2 *378:12 *1702:B 38.6214 
*END

*D_NET *379 0.00105809
*CONN
*I *1704:B1 I *D sky130_fd_sc_hd__o21ai_1
*I *1703:Y O *D sky130_fd_sc_hd__o211ai_1
*CAP
1 *1704:B1 0
2 *1703:Y 0.000325082
3 *379:8 0.000325082
4 *379:8 *1703:B1 1.10658e-05
5 *379:8 *428:6 7.43845e-05
6 *379:8 *456:6 0.000187436
7 *361:22 *379:8 0.000135037
*RES
1 *1703:Y *379:8 29.3593 
2 *379:8 *1704:B1 23 
*END

*D_NET *380 0.0191745
*CONN
*I *1765:A I *D sky130_fd_sc_hd__inv_2
*I *1766:A I *D sky130_fd_sc_hd__inv_2
*I *1763:A I *D sky130_fd_sc_hd__inv_2
*I *1764:A I *D sky130_fd_sc_hd__inv_2
*I *1719:A I *D sky130_fd_sc_hd__clkbuf_8
*I *1752:A I *D sky130_fd_sc_hd__clkbuf_8
*I *1708:A I *D sky130_fd_sc_hd__clkbuf_8
*I *1730:A I *D sky130_fd_sc_hd__clkbuf_8
*I *1741:A I *D sky130_fd_sc_hd__clkbuf_8
*I *1707:X O *D sky130_fd_sc_hd__buf_4
*CAP
1 *1765:A 0
2 *1766:A 0
3 *1763:A 0
4 *1764:A 0
5 *1719:A 0
6 *1752:A 0.000449815
7 *1708:A 4.24511e-05
8 *1730:A 0.000307464
9 *1741:A 0
10 *1707:X 0.000442553
11 *380:116 0.000318092
12 *380:103 0.00101235
13 *380:75 0.000290732
14 *380:69 0.000314827
15 *380:67 0.00368104
16 *380:54 0.00308341
17 *380:38 0.000492266
18 *380:24 0.000745204
19 *380:18 0.000901488
20 *380:14 0.000633057
21 *380:10 0.000491139
22 *1730:A *384:10 0.000212097
23 *1752:A *381:6 0.000188927
24 *1752:A *381:48 0.000302662
25 *380:10 *404:14 0
26 *380:18 *404:14 0
27 *380:18 *414:25 0
28 *380:24 *1839:A 0
29 *380:24 *382:30 0.000246515
30 *380:24 *384:10 5.12254e-05
31 *380:24 *404:14 0
32 *380:24 *414:25 0
33 *380:67 *1817:CLK 1.83408e-05
34 *380:67 *382:155 0.000932727
35 *380:67 *382:170 0.000194583
36 *380:75 *382:178 0
37 *380:75 *460:10 0
38 *380:75 *464:27 0
39 *380:103 *1524:A 0.000346657
40 *380:103 *390:126 0.000230051
41 *380:103 *460:10 2.07587e-05
42 *380:103 *465:12 3.39102e-05
43 *380:116 *1524:A 0.000281293
44 *380:116 *390:126 0.000312455
45 *380:116 *452:8 0.000303271
46 *1552:B *380:69 5.5792e-05
47 *1570:B1 *380:67 6.68986e-05
48 *1817:D *380:67 0.000126917
49 *1817:RESET_B *380:67 0.000446022
50 *1817:RESET_B *380:69 5.58003e-05
51 *91:8 *380:75 0.000171485
52 *144:8 *380:75 5.00851e-05
53 *161:86 *380:103 0.000725198
54 *161:98 *380:67 6.51374e-05
55 *161:98 *380:69 2.33782e-05
56 *161:98 *380:103 6.10547e-05
57 *245:8 *380:103 0.000147656
58 *251:6 *380:103 0.00014384
59 *251:16 *380:103 0.000145171
60 *260:12 *380:103 0
61 *275:10 *380:75 4.77164e-06
62 *293:10 *380:67 3.95707e-06
*RES
1 *1707:X *380:10 46.0786 
2 *380:10 *380:14 15.6214 
3 *380:14 *380:18 24.3007 
4 *380:18 *380:24 23.99 
5 *380:24 *1741:A 23 
6 *380:24 *1730:A 28.3857 
7 *380:18 *380:38 15 
8 *380:38 *1708:A 23.6214 
9 *380:38 *1752:A 32.1971 
10 *380:14 *380:54 2.05071 
11 *380:54 *1719:A 23 
12 *380:54 *380:67 45.9443 
13 *380:67 *380:69 1.09786 
14 *380:69 *380:75 35.7793 
15 *380:75 *1764:A 23 
16 *380:69 *1763:A 23 
17 *380:67 *380:103 47.8971 
18 *380:103 *1766:A 23 
19 *380:103 *380:116 39.2593 
20 *380:116 *1765:A 23 
*END

*D_NET *381 0.0404073
*CONN
*I *1712:A I *D sky130_fd_sc_hd__inv_2
*I *1711:A I *D sky130_fd_sc_hd__inv_2
*I *1710:A I *D sky130_fd_sc_hd__inv_2
*I *1709:A I *D sky130_fd_sc_hd__inv_2
*I *1714:A I *D sky130_fd_sc_hd__inv_2
*I *1718:A I *D sky130_fd_sc_hd__inv_2
*I *1715:A I *D sky130_fd_sc_hd__inv_2
*I *1713:A I *D sky130_fd_sc_hd__inv_2
*I *1717:A I *D sky130_fd_sc_hd__inv_2
*I *1716:A I *D sky130_fd_sc_hd__inv_2
*I *1708:X O *D sky130_fd_sc_hd__clkbuf_8
*CAP
1 *1712:A 7.32083e-05
2 *1711:A 0
3 *1710:A 0
4 *1709:A 0
5 *1714:A 0
6 *1718:A 0
7 *1715:A 3.34115e-05
8 *1713:A 2.18824e-05
9 *1717:A 0
10 *1716:A 5.84974e-05
11 *1708:X 7.97094e-05
12 *381:122 0.000745155
13 *381:116 0.00133887
14 *381:110 0.000964439
15 *381:100 0.000833123
16 *381:94 0.0005767
17 *381:90 0.000902623
18 *381:73 0.00139914
19 *381:71 0.000896146
20 *381:56 0.000882947
21 *381:54 0.000764654
22 *381:48 0.0022157
23 *381:37 0.000991532
24 *381:27 0.00189405
25 *381:14 0.00118553
26 *381:12 0.00104512
27 *381:6 0.00296689
28 *1715:A *420:16 1.8788e-05
29 *381:12 *1839:A 0
30 *381:12 *382:16 0.000164282
31 *381:12 *384:108 2.26406e-05
32 *381:12 *389:90 0.000106627
33 *381:12 *389:98 0
34 *381:12 *389:128 1.12487e-05
35 *381:12 *403:8 0
36 *381:12 *414:25 0
37 *381:12 *448:8 2.04934e-05
38 *381:12 *489:22 0
39 *381:27 *382:30 0.000858706
40 *381:27 *384:12 0.000223625
41 *381:27 *384:14 0.000213952
42 *381:27 *489:18 4.40995e-05
43 *381:27 *489:22 0.00236459
44 *381:37 *1747:A 0
45 *381:37 *1842:A 6.11945e-05
46 *381:37 *384:14 0
47 *381:37 *387:125 0
48 *381:37 *410:12 0.0002604
49 *381:37 *489:18 0.00122343
50 *381:48 *1575:A1 5.3304e-05
51 *381:48 *1831:A 0.00014196
52 *381:71 *1671:B2 8.03164e-05
53 *381:71 *1706:A2 1.02561e-05
54 *381:71 *420:29 3.20305e-05
55 *381:73 *1663:B 9.75779e-05
56 *381:73 *420:16 0.000991628
57 *381:73 *421:12 3.05357e-05
58 *381:73 *493:14 1.41077e-05
59 *381:90 *1773:CLK 0
60 *381:90 *1837:A 5.3304e-05
61 *381:90 *390:78 0
62 *381:90 *421:12 6.6054e-05
63 *381:90 *459:10 0
64 *381:94 *384:153 0.000121553
65 *381:94 *415:27 0
66 *381:94 *422:8 2.79004e-05
67 *381:100 *384:153 0.000405033
68 *381:100 *400:22 0.000129522
69 *381:100 *455:10 6.01675e-06
70 *381:100 *495:21 1.01436e-05
71 *381:100 *495:38 0.000373351
72 *381:110 *384:153 0.000617886
73 *381:110 *400:22 5.3304e-05
74 *381:110 *482:32 0.000307251
75 *381:116 *388:152 0.000168795
76 *381:116 *388:163 0.000232493
77 *381:116 *430:8 6.17437e-06
78 *381:116 *470:8 0.000108569
79 *381:116 *482:32 7.40095e-05
80 *381:122 *450:12 5.56356e-05
81 *381:122 *470:8 7.28526e-05
82 *1533:A *381:56 0.000123426
83 *1548:A1 *381:48 0.000651532
84 *1550:A2 *381:48 6.53382e-05
85 *1575:B1 *381:48 0.000181125
86 *1628:S *381:90 5.55278e-05
87 *1694:A *1716:A 9.66585e-05
88 *1694:A *381:14 0.000141352
89 *1752:A *381:6 0.000188927
90 *1752:A *381:48 0.000302662
91 *1770:RESET_B *1712:A 0.000185434
92 *1770:RESET_B *381:90 0.000265477
93 *1775:RESET_B *381:37 0.000525771
94 *42:10 *381:100 3.19287e-05
95 *44:10 *381:56 6.17437e-06
96 *44:10 *381:71 0.000214382
97 *45:10 *381:116 9.41891e-05
98 *75:8 *381:37 5.86165e-05
99 *76:8 *381:27 9.88575e-05
100 *95:8 *381:110 0.000141888
101 *101:10 *381:37 0
102 *131:8 *381:90 0.000166522
103 *149:74 *381:48 5.50106e-05
104 *149:85 *381:48 1.22822e-05
105 *153:43 *381:48 2.32004e-05
106 *153:95 *381:48 0.000176048
107 *251:16 *381:54 0
108 *259:14 *381:56 0.000786627
109 *259:18 *381:56 0.000352656
110 *259:24 *381:48 0.00129564
111 *266:155 *381:54 0.000240708
112 *278:28 *381:48 0.00129918
113 *278:111 *381:56 0.00112642
114 *297:10 *381:48 9.91895e-05
115 *339:20 *381:116 0
116 *339:20 *381:122 0
117 *339:119 *381:116 9.78729e-06
118 *339:139 *381:100 6.17437e-06
119 *339:139 *381:110 2.64616e-05
120 *339:154 *381:90 0.000196832
121 *358:29 *381:90 0
122 *359:8 *381:71 3.3123e-05
123 *359:114 *381:12 0.000681684
124 *360:87 *381:71 8.28789e-05
125 *374:8 *381:12 0
126 *377:10 *381:110 0.000110127
127 *377:18 *381:110 0.000339256
128 *377:18 *381:116 5.3304e-05
*RES
1 *1708:X *381:6 25.0507 
2 *381:6 *381:12 47.4 
3 *381:12 *381:14 4.43286 
4 *381:14 *1716:A 24.0979 
5 *381:14 *381:27 48.1118 
6 *381:27 *381:37 41.9596 
7 *381:37 *1717:A 23 
8 *381:6 *381:48 49.2586 
9 *381:48 *381:54 33.3143 
10 *381:54 *381:56 19.2021 
11 *381:56 *1713:A 23.4971 
12 *381:56 *381:71 36.7529 
13 *381:71 *381:73 13.485 
14 *381:73 *1715:A 23.8493 
15 *381:73 *381:90 45.7636 
16 *381:90 *381:94 18.3143 
17 *381:94 *381:100 27.9879 
18 *381:100 *381:110 42.3457 
19 *381:110 *381:116 30.2043 
20 *381:116 *381:122 29.5 
21 *381:122 *1718:A 23 
22 *381:116 *1714:A 38 
23 *381:110 *1709:A 23 
24 *381:100 *1710:A 23 
25 *381:94 *1711:A 38 
26 *381:90 *1712:A 25.0507 
*END

*D_NET *382 0.0454538
*CONN
*I *1729:A I *D sky130_fd_sc_hd__inv_2
*I *1724:A I *D sky130_fd_sc_hd__inv_2
*I *1723:A I *D sky130_fd_sc_hd__inv_2
*I *1721:A I *D sky130_fd_sc_hd__inv_2
*I *1720:A I *D sky130_fd_sc_hd__inv_2
*I *1722:A I *D sky130_fd_sc_hd__inv_2
*I *1728:A I *D sky130_fd_sc_hd__inv_2
*I *1725:A I *D sky130_fd_sc_hd__inv_2
*I *1726:A I *D sky130_fd_sc_hd__inv_2
*I *1727:A I *D sky130_fd_sc_hd__inv_2
*I *1719:X O *D sky130_fd_sc_hd__clkbuf_8
*CAP
1 *1729:A 0
2 *1724:A 0
3 *1723:A 0
4 *1721:A 0
5 *1720:A 0.000153457
6 *1722:A 0.000412076
7 *1728:A 0.000279739
8 *1725:A 0.000150248
9 *1726:A 0
10 *1727:A 7.93195e-05
11 *1719:X 0
12 *382:191 0.00307672
13 *382:178 0.000359393
14 *382:170 0.00535028
15 *382:155 0.00228544
16 *382:117 0.00101671
17 *382:113 0.00094903
18 *382:92 0.00159446
19 *382:84 0.00100667
20 *382:82 0.0012846
21 *382:72 0.00301962
22 *382:68 0.00204302
23 *382:53 0.000274866
24 *382:51 0.000775981
25 *382:32 0.000855301
26 *382:30 0.000923359
27 *382:16 0.00148157
28 *382:4 0.000929481
29 *1720:A *1888:A 4.04684e-05
30 *1720:A *439:10 0
31 *1722:A *487:59 0.000177736
32 *1725:A *393:6 5.56279e-05
33 *382:16 *389:107 0.000143078
34 *382:16 *389:128 0.000645903
35 *382:16 *414:25 0
36 *382:30 *1778:CLK 9.41704e-05
37 *382:30 *1839:A 0.000152615
38 *382:30 *384:12 0.000562499
39 *382:30 *389:98 0
40 *382:30 *389:107 5.56356e-05
41 *382:30 *404:14 0
42 *382:30 *489:22 0.00038982
43 *382:51 *387:169 0.000437332
44 *382:51 *419:29 0.000325198
45 *382:51 *426:10 4.6318e-06
46 *382:51 *489:22 0.000689944
47 *382:68 *1840:A 0.000233617
48 *382:68 *489:18 0
49 *382:68 *489:22 0
50 *382:72 *384:37 7.16786e-05
51 *382:72 *387:115 0.000132689
52 *382:72 *480:16 0
53 *382:72 *489:18 0
54 *382:82 *1654:A1 4.06849e-05
55 *382:82 *1777:CLK 0.000540613
56 *382:82 *394:10 0.000427428
57 *382:82 *487:14 3.22879e-05
58 *382:92 *408:28 0.000497653
59 *382:113 *418:8 5.13537e-05
60 *382:113 *440:6 0.000260457
61 *382:113 *487:53 0.00174743
62 *382:117 *487:59 0.000222869
63 *382:178 *390:149 0.000187406
64 *382:178 *464:14 0
65 *382:191 *390:126 0.000199539
66 *382:191 *424:12 0
67 *1672:S *382:113 0.000491451
68 *1685:S *382:30 0
69 *1778:RESET_B *382:16 5.79559e-05
70 *1778:RESET_B *382:30 0.000139977
71 *1781:RESET_B *382:178 5.67058e-05
72 *1783:RESET_B *382:68 5.82853e-05
73 *47:10 *382:30 0.000169674
74 *50:10 *1720:A 0.000109374
75 *52:8 *1722:A 0.000198447
76 *55:10 *1725:A 6.0765e-05
77 *55:10 *382:92 6.01995e-05
78 *57:10 *1727:A 3.52383e-05
79 *57:10 *382:30 0.000194318
80 *59:8 *382:191 0.000182175
81 *110:12 *1727:A 7.73389e-05
82 *124:8 *382:72 8.85189e-05
83 *144:8 *382:178 0
84 *149:118 *382:191 4.95093e-05
85 *162:112 *382:191 0.000150137
86 *162:126 *382:170 6.95347e-05
87 *162:126 *382:191 4.55121e-05
88 *162:151 *382:170 6.08207e-05
89 *266:59 *1720:A 0.000129037
90 *266:67 *382:82 0.000202459
91 *314:73 *382:82 0.000931307
92 *331:27 *382:51 2.36126e-05
93 *339:20 *1722:A 0
94 *354:10 *382:82 4.39152e-05
95 *359:22 *1722:A 0.000458985
96 *359:32 *1722:A 2.11066e-05
97 *359:49 *382:72 0
98 *360:24 *382:72 0
99 *360:24 *382:82 0.000127551
100 *360:24 *382:92 0.00186717
101 *360:113 *382:72 0
102 *360:132 *382:51 0
103 *360:132 *382:68 0.000147711
104 *360:147 *382:51 0
105 *361:61 *382:51 2.64616e-05
106 *380:24 *382:30 0.000246515
107 *380:67 *382:155 0.000932727
108 *380:67 *382:170 0.000194583
109 *380:75 *382:178 0
110 *381:12 *382:16 0.000164282
111 *381:27 *382:30 0.000858706
*RES
1 *1719:X *382:4 23 
2 *382:4 *382:16 44.2307 
3 *382:16 *382:30 45.3879 
4 *382:30 *382:32 15 
5 *382:32 *1727:A 25.0507 
6 *382:32 *382:51 35.2379 
7 *382:51 *382:53 15 
8 *382:53 *1726:A 23 
9 *382:53 *382:68 21.4318 
10 *382:68 *382:72 49.1268 
11 *382:72 *382:82 49.9346 
12 *382:82 *382:84 0.621429 
13 *382:84 *382:92 20.485 
14 *382:92 *1725:A 40.7032 
15 *382:92 *382:113 37.0711 
16 *382:113 *382:117 21.4836 
17 *382:117 *1728:A 42.4329 
18 *382:117 *1722:A 49.4136 
19 *382:84 *1720:A 41.9046 
20 *382:16 *1721:A 23 
21 *382:4 *382:155 10.15 
22 *382:155 *1723:A 23 
23 *382:155 *382:170 28.2918 
24 *382:170 *382:178 30.1775 
25 *382:178 *1724:A 23 
26 *382:170 *382:191 33.5874 
27 *382:191 *1729:A 23 
*END

*D_NET *383 0.0340301
*CONN
*I *1732:A I *D sky130_fd_sc_hd__inv_2
*I *1734:A I *D sky130_fd_sc_hd__inv_2
*I *1740:A I *D sky130_fd_sc_hd__inv_2
*I *1731:A I *D sky130_fd_sc_hd__inv_2
*I *1736:A I *D sky130_fd_sc_hd__inv_2
*I *1738:A I *D sky130_fd_sc_hd__inv_2
*I *1737:A I *D sky130_fd_sc_hd__inv_2
*I *1739:A I *D sky130_fd_sc_hd__inv_2
*I *1733:A I *D sky130_fd_sc_hd__inv_2
*I *1735:A I *D sky130_fd_sc_hd__inv_2
*I *1730:X O *D sky130_fd_sc_hd__clkbuf_8
*CAP
1 *1732:A 0.00138927
2 *1734:A 0
3 *1740:A 0
4 *1731:A 0
5 *1736:A 9.53207e-06
6 *1738:A 0
7 *1737:A 0
8 *1739:A 0
9 *1733:A 3.98204e-05
10 *1735:A 6.78376e-05
11 *1730:X 4.24211e-05
12 *383:171 0.00238765
13 *383:156 0.00131523
14 *383:146 0.00177122
15 *383:137 0.000420209
16 *383:122 0.000662688
17 *383:101 0.000694493
18 *383:99 0.00200566
19 *383:86 0.00166738
20 *383:78 0.000842362
21 *383:61 0.000974184
22 *383:48 0.000246957
23 *383:44 0.00211447
24 *383:42 0.0022105
25 *383:31 0.00047543
26 *383:25 0.00238244
27 *383:12 0.00117905
28 *383:8 0.000554211
29 *1732:A *479:16 0.000427328
30 *1733:A *409:29 3.7122e-06
31 *383:12 *1693:A0 2.96123e-05
32 *383:12 *385:26 0.000376937
33 *383:12 *385:41 0.00030476
34 *383:12 *391:14 0.000117908
35 *383:12 *485:16 0.000107715
36 *383:25 *473:77 0
37 *383:25 *474:25 0
38 *383:25 *485:16 0.000144069
39 *383:31 *409:29 0.000185655
40 *383:31 *473:77 0
41 *383:44 *1645:B2 0
42 *383:44 *1751:A 0
43 *383:44 *384:54 0
44 *383:44 *409:29 0
45 *383:44 *461:14 0
46 *383:44 *461:27 0
47 *383:44 *467:12 4.23817e-05
48 *383:44 *468:12 0
49 *383:44 *489:8 0.000137744
50 *383:61 *387:52 5.43443e-05
51 *383:78 *1654:A1 0.000292524
52 *383:78 *1777:CLK 0
53 *383:78 *387:52 0.000115
54 *383:78 *487:39 0.000265515
55 *383:78 *488:14 5.3304e-05
56 *383:86 *395:24 0.000188934
57 *383:86 *413:24 2.35393e-05
58 *383:86 *487:39 0.000129707
59 *383:99 *395:24 0.000100803
60 *383:99 *487:39 0.000351936
61 *383:122 *1787:CLK 0.000126784
62 *383:122 *1838:A 4.08641e-05
63 *383:122 *1893:A 3.31127e-05
64 *383:137 *1782:CLK 9.67334e-05
65 *383:137 *388:14 1.13404e-05
66 *383:137 *388:18 1.0437e-05
67 *383:137 *486:8 1.63599e-05
68 *383:146 *389:16 0.000321354
69 *383:156 *1742:A 5.50106e-05
70 *383:156 *473:8 2.9938e-05
71 *383:156 *486:68 0.000108188
72 *383:171 *473:8 3.22879e-05
73 *1482:B *383:44 0
74 *1521:A3 *383:171 0
75 *1528:B *383:146 6.97637e-05
76 *1543:A *1732:A 4.77283e-06
77 *1557:A2 *383:171 0.000165049
78 *1645:A1_N *383:44 2.5343e-05
79 *1648:A2 *383:137 3.39129e-06
80 *1655:A2 *383:48 5.67058e-05
81 *1655:A2 *383:61 0.00026034
82 *1657:A2 *383:137 1.05887e-05
83 *1672:S *383:122 0
84 *1688:A *383:99 3.84486e-05
85 *1787:D *383:122 5.14266e-05
86 *1789:RESET_B *1733:A 5.50106e-05
87 *1790:D *383:146 9.5877e-05
88 *1792:D *383:99 0.000123934
89 *1792:RESET_B *1736:A 5.67058e-05
90 *1792:RESET_B *383:99 3.54864e-05
91 *1795:RESET_B *383:48 5.58003e-05
92 *1795:RESET_B *383:61 6.38427e-05
93 *1807:D *383:44 0
94 *60:8 *383:122 8.85189e-05
95 *64:8 *383:12 0.000193539
96 *69:8 *383:137 0.000186772
97 *79:8 *383:44 5.18573e-05
98 *80:12 *383:44 0
99 *81:8 *383:44 7.90703e-05
100 *86:10 *383:25 5.79934e-05
101 *87:8 *383:12 0.000113153
102 *116:8 *383:156 4.48974e-05
103 *120:10 *383:78 0
104 *151:74 *383:171 0
105 *151:85 *383:171 0
106 *161:60 *1732:A 0.000402392
107 *173:30 *383:44 0
108 *173:46 *383:44 0
109 *205:18 *383:171 6.08318e-05
110 *217:24 *383:44 0
111 *246:26 *1732:A 5.12254e-05
112 *246:26 *383:171 6.68587e-05
113 *247:19 *383:171 1.14452e-05
114 *248:17 *383:171 2.11668e-05
115 *255:8 *383:146 9.77405e-05
116 *259:125 *383:137 3.3226e-05
117 *259:129 *383:137 1.59912e-05
118 *263:57 *383:25 0.00010981
119 *266:67 *383:78 0
120 *277:43 *383:171 0
121 *278:10 *383:171 0.000465984
122 *278:71 *383:31 2.11887e-05
123 *278:81 *383:44 0
124 *279:31 *383:25 0
125 *303:16 *383:137 4.72619e-05
126 *303:20 *383:137 1.33173e-05
127 *303:63 *383:99 2.47127e-05
128 *303:145 *383:25 0
129 *306:12 *383:146 0.000744653
130 *314:10 *383:156 0.0001396
131 *331:6 *1733:A 2.4754e-05
132 *331:6 *383:42 0.000153145
133 *338:26 *383:78 4.36552e-05
134 *338:36 *383:122 0.000189336
135 *349:12 *383:44 0.000176869
136 *351:8 *383:137 0.000336805
137 *352:10 *383:44 2.46399e-05
138 *353:10 *383:86 1.12863e-05
139 *355:10 *383:137 3.8586e-05
140 *360:162 *383:25 0.000352212
141 *361:42 *383:146 0.000125196
142 *366:10 *383:122 0.00044909
*RES
1 *1730:X *383:8 38.6214 
2 *383:8 *383:12 29.2307 
3 *383:12 *1735:A 24.0979 
4 *383:12 *383:25 28.4021 
5 *383:25 *383:31 21.6286 
6 *383:31 *1733:A 24.0979 
7 *383:31 *383:42 18.0036 
8 *383:42 *383:44 39.585 
9 *383:44 *383:48 15.6214 
10 *383:48 *1739:A 23 
11 *383:48 *383:61 6.04857 
12 *383:61 *1737:A 23 
13 *383:61 *383:78 41.1236 
14 *383:78 *383:86 32.9 
15 *383:86 *1738:A 23 
16 *383:86 *383:99 23.3036 
17 *383:99 *383:101 0.497143 
18 *383:101 *1736:A 23.6214 
19 *383:101 *383:122 45.5771 
20 *383:122 *1731:A 23 
21 *383:99 *383:137 38.9382 
22 *383:137 *1740:A 23 
23 *383:25 *383:146 37.0607 
24 *383:146 *383:156 36.4836 
25 *383:156 *1734:A 23 
26 *383:156 *383:171 49.9271 
27 *383:171 *1732:A 46.4071 
*END

*D_NET *384 0.0413428
*CONN
*I *1746:A I *D sky130_fd_sc_hd__inv_2
*I *1750:A I *D sky130_fd_sc_hd__inv_2
*I *1749:A I *D sky130_fd_sc_hd__inv_2
*I *1742:A I *D sky130_fd_sc_hd__inv_2
*I *1748:A I *D sky130_fd_sc_hd__inv_2
*I *1744:A I *D sky130_fd_sc_hd__inv_2
*I *1745:A I *D sky130_fd_sc_hd__inv_2
*I *1751:A I *D sky130_fd_sc_hd__inv_2
*I *1743:A I *D sky130_fd_sc_hd__inv_2
*I *1747:A I *D sky130_fd_sc_hd__inv_2
*I *1741:X O *D sky130_fd_sc_hd__clkbuf_8
*CAP
1 *1746:A 0
2 *1750:A 0
3 *1749:A 0.000300776
4 *1742:A 0.000145406
5 *1748:A 1.83506e-05
6 *1744:A 0.000139791
7 *1745:A 2.30556e-05
8 *1751:A 0.000577487
9 *1743:A 0
10 *1747:A 0.000134808
11 *1741:X 0
12 *384:153 0.00142815
13 *384:143 0.00199461
14 *384:135 0.00362975
15 *384:122 0.00107269
16 *384:108 0.00621122
17 *384:73 0.00144003
18 *384:54 0.00259055
19 *384:43 0.000786408
20 *384:37 0.00063554
21 *384:14 0.00105089
22 *384:12 0.00158283
23 *384:10 0.00153628
24 *384:4 0.0028243
25 *1742:A *491:43 0.000364739
26 *1744:A *486:33 0.000354122
27 *1747:A *387:125 5.67058e-05
28 *1747:A *480:16 5.50106e-05
29 *1748:A *419:29 1.59912e-05
30 *1749:A *415:25 0
31 *1751:A *409:14 0
32 *384:12 *404:12 0
33 *384:12 *404:14 0
34 *384:12 *481:14 0
35 *384:37 *387:115 0.0001366
36 *384:43 *480:33 5.56356e-05
37 *384:54 *385:55 0
38 *384:54 *409:14 0
39 *384:54 *480:33 0.00030536
40 *384:108 *389:98 0
41 *384:122 *486:68 0.000621855
42 *384:135 *390:53 1.20966e-05
43 *384:143 *1770:CLK 0.000191843
44 *384:143 *390:53 1.05441e-05
45 *384:143 *479:8 0
46 *384:153 *400:10 0
47 *384:153 *415:25 0
48 *384:153 *415:27 0
49 *384:153 *495:21 0
50 *1517:A2 *384:122 5.17808e-05
51 *1523:A2 *384:122 1.12695e-05
52 *1553:A *384:122 0.000138392
53 *1557:B1 *384:122 1.02387e-05
54 *1634:S *1747:A 0.000164291
55 *1641:A *1744:A 8.28951e-05
56 *1685:S *384:108 2.27056e-05
57 *1730:A *384:10 0.000212097
58 *1868:A *1749:A 0
59 *41:8 *384:153 0.000412601
60 *47:10 *384:12 0.000171906
61 *57:10 *384:12 0.000194318
62 *71:8 *384:37 6.02514e-05
63 *76:8 *384:12 0.00019654
64 *77:10 *1749:A 9.70579e-05
65 *80:12 *384:54 0.000224345
66 *110:12 *384:12 0
67 *116:8 *384:122 0.000166463
68 *124:8 *384:37 8.85189e-05
69 *130:8 *1749:A 4.92303e-05
70 *159:27 *384:135 0.000135383
71 *162:56 *384:122 0.000243207
72 *165:10 *384:122 1.59249e-05
73 *200:82 *384:122 0.000249628
74 *238:19 *384:122 3.41507e-05
75 *244:10 *384:122 0.000414741
76 *254:111 *384:108 6.63073e-05
77 *254:111 *384:135 0.00041554
78 *269:10 *384:122 2.05503e-05
79 *279:49 *384:122 0
80 *314:10 *1742:A 0.000530819
81 *339:26 *1744:A 9.13289e-05
82 *339:26 *384:73 0.000226219
83 *339:69 *384:37 0.000614497
84 *339:88 *1747:A 3.70187e-05
85 *339:88 *384:12 2.55642e-05
86 *339:88 *384:14 0.000851211
87 *339:139 *384:153 0.000351394
88 *339:154 *384:153 0.000433881
89 *341:8 *384:153 8.62783e-05
90 *342:10 *384:12 0
91 *349:41 *384:108 0
92 *358:14 *384:143 0.000106382
93 *358:29 *384:143 7.43114e-05
94 *359:16 *384:143 0.000141954
95 *359:95 *384:108 0.00059617
96 *359:95 *384:135 0.000562255
97 *377:10 *384:153 1.46331e-05
98 *380:24 *384:10 5.12254e-05
99 *381:12 *384:108 2.26406e-05
100 *381:27 *384:12 0.000223625
101 *381:27 *384:14 0.000213952
102 *381:37 *1747:A 0
103 *381:37 *384:14 0
104 *381:94 *384:153 0.000121553
105 *381:100 *384:153 0.000405033
106 *381:110 *384:153 0.000617886
107 *382:30 *384:12 0.000562499
108 *382:72 *384:37 7.16786e-05
109 *383:44 *1751:A 0
110 *383:44 *384:54 0
111 *383:156 *1742:A 5.50106e-05
*RES
1 *1741:X *384:4 23 
2 *384:4 *384:10 20.8829 
3 *384:10 *384:12 31.1336 
4 *384:12 *384:14 11.4136 
5 *384:14 *1747:A 41.2314 
6 *384:14 *384:37 43.485 
7 *384:37 *384:43 16.1186 
8 *384:43 *1743:A 23 
9 *384:43 *384:54 29.5829 
10 *384:54 *1751:A 48.3571 
11 *384:54 *384:73 37.0814 
12 *384:73 *1745:A 23.4971 
13 *384:73 *1744:A 27.93 
14 *384:12 *1748:A 38.3418 
15 *384:4 *384:108 29.216 
16 *384:108 *384:122 44.9261 
17 *384:122 *1742:A 28.8621 
18 *384:108 *384:135 15.8475 
19 *384:135 *384:143 30.0386 
20 *384:143 *384:153 44.1761 
21 *384:153 *1749:A 44.3075 
22 *384:143 *1750:A 23 
23 *384:135 *1746:A 38 
*END

*D_NET *385 0.0341683
*CONN
*I *1762:A I *D sky130_fd_sc_hd__inv_2
*I *1761:A I *D sky130_fd_sc_hd__inv_2
*I *1758:A I *D sky130_fd_sc_hd__inv_2
*I *1756:A I *D sky130_fd_sc_hd__inv_2
*I *1755:A I *D sky130_fd_sc_hd__inv_2
*I *1757:A I *D sky130_fd_sc_hd__inv_2
*I *1759:A I *D sky130_fd_sc_hd__inv_2
*I *1754:A I *D sky130_fd_sc_hd__inv_2
*I *1753:A I *D sky130_fd_sc_hd__inv_2
*I *1760:A I *D sky130_fd_sc_hd__inv_2
*I *1752:X O *D sky130_fd_sc_hd__clkbuf_8
*CAP
1 *1762:A 0.000102117
2 *1761:A 0
3 *1758:A 7.17129e-05
4 *1756:A 0.000380129
5 *1755:A 0.000779627
6 *1757:A 0
7 *1759:A 5.44205e-05
8 *1754:A 0.000265941
9 *1753:A 0
10 *1760:A 0
11 *1752:X 0
12 *385:108 0.00147605
13 *385:102 0.0025788
14 *385:100 0.00333185
15 *385:92 0.00435089
16 *385:55 0.000631297
17 *385:51 0.00168591
18 *385:45 0.00107987
19 *385:41 0.0031889
20 *385:26 0.000886375
21 *385:12 0.000864663
22 *385:6 0.000439521
23 *1754:A *429:6 0.000142459
24 *1754:A *468:12 0.000102971
25 *1755:A *1600:A1 0.000135953
26 *1756:A *471:37 0
27 *1759:A *389:36 2.93845e-05
28 *1762:A *391:12 8.44544e-05
29 *1762:A *392:22 0.000139719
30 *385:12 *391:12 0.000130673
31 *385:12 *392:22 0.000201121
32 *385:26 *1693:A0 4.04025e-05
33 *385:26 *391:14 0
34 *385:26 *474:14 1.37232e-05
35 *385:41 *1693:A0 0.000331147
36 *385:41 *391:14 1.12487e-05
37 *385:51 *391:14 0.000235074
38 *385:51 *409:14 0.000634002
39 *385:51 *481:31 0.000395922
40 *385:55 *409:14 0.00123219
41 *385:92 *1513:A 8.1181e-05
42 *385:92 *1825:A 1.59094e-05
43 *385:92 *390:10 9.79925e-05
44 *385:100 *1595:A1 2.95377e-05
45 *385:100 *1812:CLK 0.000153131
46 *385:100 *390:10 0.000201502
47 *385:100 *473:52 0.00010556
48 *385:102 *1599:B1 0
49 *385:102 *470:24 0
50 *385:102 *471:69 0.000473445
51 *385:102 *472:54 0
52 *385:108 *1600:A1 0.000147656
53 *385:108 *388:105 0
54 *385:108 *388:122 0
55 *385:108 *470:24 0
56 *385:108 *471:18 0
57 *385:108 *471:31 0
58 *385:108 *471:69 1.44546e-05
59 *1433:B1 *385:92 2.02872e-05
60 *1513:B *385:92 7.34072e-05
61 *1556:A *385:92 5.3304e-05
62 *1556:B *385:92 2.59977e-05
63 *1564:A1 *385:92 1.78826e-05
64 *1564:A2 *385:92 0.000172544
65 *1564:B1_N *385:92 5.76874e-05
66 *1583:B2 *385:45 7.50533e-05
67 *1594:A2 *385:100 5.56356e-05
68 *1600:A2 *1755:A 0.000230726
69 *1604:B1 *385:102 4.74882e-05
70 *1812:D *385:100 0.000148279
71 *153:123 *385:100 0.000230299
72 *163:78 *1755:A 2.02872e-05
73 *193:10 *385:102 0
74 *193:16 *385:102 0
75 *193:29 *385:102 0.000244517
76 *193:44 *385:102 0.000188926
77 *200:37 *385:92 0.000223088
78 *230:44 *385:102 4.6908e-06
79 *239:70 *385:92 0.000279826
80 *240:6 *385:92 4.38587e-05
81 *240:12 *385:92 0.000512294
82 *255:60 *385:102 0.000751305
83 *255:77 *385:102 0.000369615
84 *256:55 *1758:A 0.000154856
85 *256:55 *385:100 0
86 *256:55 *385:102 0.000493468
87 *258:16 *1758:A 4.39997e-05
88 *258:16 *385:100 1.02561e-05
89 *258:16 *385:102 8.18776e-05
90 *259:102 *385:102 0.000149358
91 *266:131 *385:45 0.000181496
92 *278:69 *385:45 0.000243885
93 *278:69 *385:51 0.000207427
94 *278:71 *385:51 4.99753e-06
95 *278:81 *1754:A 5.58003e-05
96 *278:81 *385:51 8.47627e-05
97 *287:8 *385:92 6.06973e-05
98 *301:10 *385:92 2.03764e-06
99 *303:145 *385:45 9.46725e-05
100 *303:145 *385:51 0.000228903
101 *310:10 *385:102 4.29621e-05
102 *313:12 *385:100 1.36771e-05
103 *320:10 *385:102 0.000135557
104 *359:114 *385:26 0
105 *383:12 *385:26 0.000376937
106 *383:12 *385:41 0.00030476
107 *384:54 *385:55 0
*RES
1 *1752:X *385:6 38 
2 *385:6 *385:12 22.9543 
3 *385:12 *385:26 40.73 
4 *385:26 *1760:A 23 
5 *385:26 *385:41 37.1671 
6 *385:41 *385:45 22.1879 
7 *385:45 *385:51 22.04 
8 *385:51 *385:55 31.3436 
9 *385:55 *1753:A 23 
10 *385:51 *1754:A 43.9036 
11 *385:45 *1759:A 39.1186 
12 *385:41 *385:92 39.5021 
13 *385:92 *385:100 38.9561 
14 *385:100 *385:102 40.4654 
15 *385:102 *385:108 28.34 
16 *385:108 *1757:A 23 
17 *385:108 *1755:A 37.3757 
18 *385:102 *1756:A 44.3593 
19 *385:100 *1758:A 40.0818 
20 *385:12 *1761:A 23 
21 *385:6 *1762:A 41.6664 
*END

*D_NET *386 0.0171981
*CONN
*I *1825:A I *D sky130_fd_sc_hd__clkbuf_16
*I *1824:A I *D sky130_fd_sc_hd__clkbuf_16
*I *1823:A I *D sky130_fd_sc_hd__clkbuf_16
*I *1822:A I *D sky130_fd_sc_hd__clkbuf_16
*I *1821:X O *D sky130_fd_sc_hd__clkbuf_16
*CAP
1 *1825:A 7.45894e-05
2 *1824:A 0
3 *1823:A 0.000159242
4 *1822:A 0.00160379
5 *1821:X 0.000349041
6 *386:64 0.00156508
7 *386:50 0.00304056
8 *386:20 0.00327562
9 *386:14 0.00291348
10 *386:12 0.000349041
11 *1822:A *491:30 1.55259e-05
12 *1823:A *478:23 0
13 *386:12 *400:55 0
14 *386:20 *484:10 0.000114489
15 *386:20 *491:30 0.000244247
16 *386:50 *491:30 0.000344152
17 *386:64 *389:10 0.000176608
18 *1565:A2 *386:64 3.62181e-05
19 *1577:A *386:64 7.66914e-06
20 *3:13 *386:20 0.00189512
21 *150:102 *386:12 7.44517e-05
22 *159:41 *386:64 0.000135037
23 *162:36 *1825:A 4.60157e-05
24 *162:36 *386:50 0.000304542
25 *162:36 *386:64 6.92544e-05
26 *200:54 *386:64 8.73233e-05
27 *240:20 *386:64 0.000215038
28 *266:22 *386:20 0
29 *266:123 *386:50 0
30 *266:131 *386:64 0
31 *278:10 *1825:A 1.91026e-05
32 *314:40 *1822:A 2.82105e-05
33 *339:53 *1822:A 0
34 *346:8 *1823:A 0
35 *349:41 *386:64 4.81853e-06
36 *350:20 *386:12 0
37 *357:14 *386:64 3.39278e-05
38 *385:92 *1825:A 1.59094e-05
*RES
1 *1821:X *386:12 47.7254 
2 *386:12 *386:14 8 
3 *386:14 *386:20 13.74 
4 *386:20 *1822:A 49.7345 
5 *386:20 *1823:A 48.7861 
6 *386:14 *386:50 11.5896 
7 *386:50 *386:64 30.9827 
8 *386:64 *1824:A 23 
9 *386:50 *1825:A 47.2946 
*END

*D_NET *387 0.0241885
*CONN
*I *1800:CLK I *D sky130_fd_sc_hd__dfrtp_4
*I *1794:CLK I *D sky130_fd_sc_hd__dfrtp_1
*I *1807:CLK I *D sky130_fd_sc_hd__dfrtp_1
*I *1798:CLK I *D sky130_fd_sc_hd__dfrtp_4
*I *1802:CLK I *D sky130_fd_sc_hd__dfrtp_4
*I *1803:CLK I *D sky130_fd_sc_hd__dfrtp_4
*I *1808:CLK I *D sky130_fd_sc_hd__dfrtp_1
*I *1789:CLK I *D sky130_fd_sc_hd__dfrtp_1
*I *1783:CLK I *D sky130_fd_sc_hd__dfrtp_1
*I *1775:CLK I *D sky130_fd_sc_hd__dfrtp_1
*I *1806:CLK I *D sky130_fd_sc_hd__dfrtp_1
*I *1793:CLK I *D sky130_fd_sc_hd__dfrtp_1
*I *1795:CLK I *D sky130_fd_sc_hd__dfrtp_1
*I *1777:CLK I *D sky130_fd_sc_hd__dfrtp_1
*I *1799:CLK I *D sky130_fd_sc_hd__dfrtp_2
*I *1822:X O *D sky130_fd_sc_hd__clkbuf_16
*CAP
1 *1800:CLK 0
2 *1794:CLK 2.52923e-05
3 *1807:CLK 0
4 *1798:CLK 0
5 *1802:CLK 0
6 *1803:CLK 0.00028125
7 *1808:CLK 0.000134721
8 *1789:CLK 0
9 *1783:CLK 8.30953e-05
10 *1775:CLK 0
11 *1806:CLK 0.000123941
12 *1793:CLK 0.000309509
13 *1795:CLK 0.000230842
14 *1777:CLK 0.000323859
15 *1799:CLK 0.00026631
16 *1822:X 0.000209337
17 *387:169 0.000324485
18 *387:159 0.00106255
19 *387:155 0.00110458
20 *387:140 0.000817772
21 *387:133 0.0006551
22 *387:127 0.00116979
23 *387:125 0.000673468
24 *387:115 0.00131878
25 *387:93 0.00111346
26 *387:76 0.00087211
27 *387:63 0.000589529
28 *387:52 0.00120211
29 *387:46 0.00119946
30 *387:29 0.00102531
31 *387:23 0.000498556
32 *387:10 0.000475647
33 *1777:CLK *1654:A1 0
34 *1777:CLK *413:24 0.000336166
35 *1793:CLK *409:14 6.4393e-05
36 *1803:CLK *446:8 0.000114656
37 *1803:CLK *481:14 0
38 *1806:CLK *1691:A1 0.000141355
39 *1806:CLK *486:53 0.000111397
40 *387:29 *1638:A1 3.88133e-05
41 *387:29 *413:24 0.000581347
42 *387:29 *486:53 7.1e-05
43 *387:29 *488:14 6.07848e-05
44 *387:46 *488:14 7.329e-05
45 *387:52 *488:14 1.5769e-05
46 *387:76 *409:14 0.00034794
47 *387:93 *409:14 0.000331425
48 *387:115 *480:16 6.17437e-06
49 *387:125 *480:16 0.000153898
50 *387:133 *410:12 0.000182435
51 *387:169 *481:14 3.37394e-05
52 *387:169 *481:31 5.79559e-05
53 product[9] *1803:CLK 1.23106e-05
54 *1634:S *387:125 5.50106e-05
55 *1638:S *387:29 5.79559e-05
56 *1651:A3 *1793:CLK 9.45591e-05
57 *1651:B1 *1793:CLK 0.000228903
58 *1655:A2 *387:52 0.000530942
59 *1747:A *387:125 5.67058e-05
60 *1798:D *387:115 3.32317e-05
61 *1800:D *387:29 9.77405e-05
62 *1802:D *387:125 2.93845e-05
63 *1807:D *387:93 7.43845e-05
64 *1872:A *387:140 5.07359e-05
65 *66:10 *387:52 5.3304e-05
66 *75:8 *387:125 0
67 *109:10 *387:140 4.11274e-05
68 *109:10 *387:155 1.7403e-05
69 *119:10 *387:52 5.50106e-05
70 *120:10 *1777:CLK 3.83778e-05
71 *120:10 *387:29 1.83153e-05
72 *121:10 *1793:CLK 0.000183236
73 *121:10 *387:76 5.09373e-05
74 *126:12 *1799:CLK 7.52235e-05
75 *128:10 *387:125 0
76 *128:10 *387:133 3.31127e-05
77 *128:10 *387:140 7.03869e-05
78 *129:8 *1803:CLK 4.21594e-06
79 *259:135 *1799:CLK 0.000100754
80 *259:167 *387:29 0.000163256
81 *266:67 *1777:CLK 0.000429979
82 *303:73 *1793:CLK 0.000198206
83 *339:26 *387:10 0.000100486
84 *342:10 *1803:CLK 0
85 *345:10 *387:29 0.000167337
86 *360:12 *1795:CLK 6.24611e-05
87 *360:24 *1777:CLK 0.000106693
88 *360:24 *1793:CLK 1.63351e-05
89 *360:113 *387:76 0.000322559
90 *360:113 *387:93 0.000327922
91 *360:113 *387:115 0
92 *360:132 *387:169 0
93 *381:37 *387:125 0
94 *382:51 *387:169 0.000437332
95 *382:72 *387:115 0.000132689
96 *382:82 *1777:CLK 0.000540613
97 *383:61 *387:52 5.43443e-05
98 *383:78 *1777:CLK 0
99 *383:78 *387:52 0.000115
100 *384:37 *387:115 0.0001366
*RES
1 *1822:X *387:10 41.3557 
2 *387:10 *1799:CLK 43.6136 
3 *387:10 *387:23 15 
4 *387:23 *387:29 27.7807 
5 *387:29 *1777:CLK 48.585 
6 *387:29 *387:46 18.0243 
7 *387:46 *387:52 16.5093 
8 *387:52 *1795:CLK 25.9 
9 *387:52 *387:63 15 
10 *387:63 *1793:CLK 47.1971 
11 *387:63 *387:76 9.65286 
12 *387:76 *1806:CLK 41.48 
13 *387:76 *387:93 27.4493 
14 *387:93 *387:115 41.8279 
15 *387:115 *387:125 42.4286 
16 *387:125 *387:127 15 
17 *387:127 *387:133 28.9821 
18 *387:133 *1775:CLK 23 
19 *387:127 *387:140 10.3571 
20 *387:140 *1783:CLK 39.6157 
21 *387:140 *387:155 3.66643 
22 *387:155 *387:159 24.6736 
23 *387:159 *387:169 37.8507 
24 *387:169 *1789:CLK 23 
25 *387:159 *1808:CLK 25.0507 
26 *387:155 *1803:CLK 43.7793 
27 *387:125 *1802:CLK 23 
28 *387:115 *1798:CLK 23 
29 *387:93 *1807:CLK 23 
30 *387:46 *1794:CLK 23.4971 
31 *387:23 *1800:CLK 23 
*END

*D_NET *388 0.0218819
*CONN
*I *1809:CLK I *D sky130_fd_sc_hd__dfrtp_2
*I *1768:CLK I *D sky130_fd_sc_hd__dfrtp_1
*I *1767:CLK I *D sky130_fd_sc_hd__dfrtp_1
*I *1804:CLK I *D sky130_fd_sc_hd__dfrtp_4
*I *1772:CLK I *D sky130_fd_sc_hd__dfrtp_4
*I *1810:CLK I *D sky130_fd_sc_hd__dfrtp_2
*I *1776:CLK I *D sky130_fd_sc_hd__dfrtp_1
*I *1779:CLK I *D sky130_fd_sc_hd__dfrtp_1
*I *1785:CLK I *D sky130_fd_sc_hd__dfrtp_1
*I *1787:CLK I *D sky130_fd_sc_hd__dfrtp_1
*I *1811:CLK I *D sky130_fd_sc_hd__dfrtp_2
*I *1796:CLK I *D sky130_fd_sc_hd__dfrtp_1
*I *1792:CLK I *D sky130_fd_sc_hd__dfrtp_1
*I *1782:CLK I *D sky130_fd_sc_hd__dfrtp_1
*I *1823:X O *D sky130_fd_sc_hd__clkbuf_16
*CAP
1 *1809:CLK 0
2 *1768:CLK 3.79282e-05
3 *1767:CLK 0.000621353
4 *1804:CLK 0
5 *1772:CLK 0
6 *1810:CLK 0.00010983
7 *1776:CLK 0.000370042
8 *1779:CLK 9.04371e-05
9 *1785:CLK 0
10 *1787:CLK 0.000469493
11 *1811:CLK 0
12 *1796:CLK 0
13 *1792:CLK 0
14 *1782:CLK 0.000472867
15 *1823:X 6.52031e-05
16 *388:163 0.00100379
17 *388:152 0.000936172
18 *388:139 0.000854863
19 *388:122 0.000752301
20 *388:105 0.00105369
21 *388:94 0.000685002
22 *388:80 0.000976617
23 *388:74 0.0013974
24 *388:65 0.00109069
25 *388:49 0.000395135
26 *388:41 0.000828671
27 *388:35 0.000924129
28 *388:18 0.000687263
29 *388:14 0.000635867
30 *388:8 0.000486674
31 *1767:CLK *494:8 2.93845e-05
32 *1779:CLK *1600:A1 6.17437e-06
33 *1782:CLK *486:8 0
34 *388:8 *491:30 1.5367e-05
35 *388:18 *490:46 0.000110267
36 *388:41 *490:10 0.000221754
37 *388:41 *490:20 0.000167478
38 *388:41 *490:46 4.21921e-05
39 *388:49 *1834:A 0
40 *388:49 *486:33 0
41 *388:49 *490:20 0.000104588
42 *388:65 *1610:A1 0.000136728
43 *388:65 *490:46 1.47795e-05
44 *388:80 *407:27 0.000104048
45 *388:80 *487:59 0
46 *388:94 *451:8 2.99194e-05
47 *388:94 *471:8 0
48 *388:94 *487:59 0
49 *388:105 *487:59 0
50 *388:122 *470:24 0.000410369
51 *388:139 *470:12 0.000310653
52 *388:139 *470:24 0.00037336
53 *388:152 *470:12 0.000132084
54 *388:163 *1858:A 0.000188477
55 *388:163 *482:32 7.96055e-05
56 *1605:B1 *388:139 8.26252e-05
57 *1648:B1 *388:14 0.000102971
58 *1678:A *1782:CLK 0.00010335
59 *1689:S *1776:CLK 0.000185434
60 *1767:RESET_B *1767:CLK 2.55762e-05
61 *1772:D *388:152 5.58003e-05
62 *1779:D *1779:CLK 9.04105e-06
63 *1782:D *1782:CLK 5.70419e-05
64 *1785:D *1787:CLK 5.12254e-05
65 *1785:D *388:80 6.9805e-05
66 *1787:D *1787:CLK 7.46298e-05
67 *1787:RESET_B *1787:CLK 5.03716e-05
68 *1796:RESET_B *388:41 4.36616e-05
69 *1809:D *388:18 2.19291e-05
70 *1811:D *388:74 2.95423e-05
71 *1811:RESET_B *388:74 4.90004e-05
72 *58:8 *388:80 0.000138151
73 *69:8 *1782:CLK 4.41821e-06
74 *69:8 *388:18 8.0554e-05
75 *83:10 *388:122 0
76 *84:10 *388:94 0
77 *102:8 *1776:CLK 7.41768e-05
78 *105:8 *388:105 8.57577e-05
79 *135:8 *388:65 4.51972e-05
80 *136:10 *388:122 6.48049e-05
81 *136:10 *388:139 0.000111852
82 *163:61 *388:41 0.000340899
83 *163:61 *388:49 6.19955e-05
84 *163:61 *388:65 0.000688987
85 *163:78 *388:65 0.000193323
86 *230:44 *388:139 0
87 *259:125 *388:18 1.57519e-05
88 *259:129 *388:14 5.0302e-05
89 *259:133 *388:14 6.35709e-06
90 *266:28 *388:8 3.70319e-05
91 *266:59 *388:49 0
92 *321:8 *388:139 0.000142678
93 *325:24 *388:80 0
94 *338:36 *1782:CLK 0
95 *339:16 *388:163 0
96 *339:20 *388:163 0
97 *359:18 *388:122 0
98 *359:18 *388:139 0
99 *359:22 *388:105 0
100 *359:22 *388:122 0
101 *366:10 *1782:CLK 8.4047e-05
102 *369:10 *388:94 4.69613e-05
103 *369:10 *388:105 4.08944e-05
104 *372:12 *1776:CLK 0.000486534
105 *381:116 *388:152 0.000168795
106 *381:116 *388:163 0.000232493
107 *383:122 *1787:CLK 0.000126784
108 *383:137 *1782:CLK 9.67334e-05
109 *383:137 *388:14 1.13404e-05
110 *383:137 *388:18 1.0437e-05
111 *385:108 *388:105 0
112 *385:108 *388:122 0
*RES
1 *1823:X *388:8 39.2014 
2 *388:8 *388:14 20.7586 
3 *388:14 *388:18 18.6664 
4 *388:18 *1782:CLK 47.28 
5 *388:18 *388:35 15 
6 *388:35 *388:41 11.02 
7 *388:41 *388:49 37.4779 
8 *388:49 *1792:CLK 23 
9 *388:41 *1796:CLK 23 
10 *388:35 *388:65 12.5736 
11 *388:65 *1811:CLK 23 
12 *388:65 *388:74 26.1029 
13 *388:74 *388:80 25.2121 
14 *388:80 *1787:CLK 32.6736 
15 *388:80 *1785:CLK 23 
16 *388:74 *388:94 5.77929 
17 *388:94 *1779:CLK 39.5743 
18 *388:94 *388:105 5.77929 
19 *388:105 *1776:CLK 47.86 
20 *388:105 *388:122 8.94857 
21 *388:122 *1810:CLK 39.595 
22 *388:122 *388:139 23.9071 
23 *388:139 *1772:CLK 23 
24 *388:139 *388:152 25.4814 
25 *388:152 *1804:CLK 38 
26 *388:152 *388:163 23.5964 
27 *388:163 *1767:CLK 33.1707 
28 *388:163 *1768:CLK 23.6214 
29 *388:14 *1809:CLK 23 
*END

*D_NET *389 0.0275017
*CONN
*I *1781:CLK I *D sky130_fd_sc_hd__dfrtp_1
*I *1817:CLK I *D sky130_fd_sc_hd__dfrtp_2
*I *1814:CLK I *D sky130_fd_sc_hd__dfrtp_4
*I *1780:CLK I *D sky130_fd_sc_hd__dfrtp_1
*I *1816:CLK I *D sky130_fd_sc_hd__dfrtp_2
*I *1815:CLK I *D sky130_fd_sc_hd__dfrtp_4
*I *1778:CLK I *D sky130_fd_sc_hd__dfrtp_1
*I *1791:CLK I *D sky130_fd_sc_hd__dfrtp_1
*I *1813:CLK I *D sky130_fd_sc_hd__dfrtp_4
*I *1784:CLK I *D sky130_fd_sc_hd__dfrtp_1
*I *1774:CLK I *D sky130_fd_sc_hd__dfrtp_1
*I *1797:CLK I *D sky130_fd_sc_hd__dfrtp_2
*I *1790:CLK I *D sky130_fd_sc_hd__dfrtp_1
*I *1824:X O *D sky130_fd_sc_hd__clkbuf_16
*CAP
1 *1781:CLK 0
2 *1817:CLK 2.38327e-05
3 *1814:CLK 0
4 *1780:CLK 0
5 *1816:CLK 0
6 *1815:CLK 0
7 *1778:CLK 0.0005494
8 *1791:CLK 0.00034394
9 *1813:CLK 0.000239854
10 *1784:CLK 4.01155e-05
11 *1774:CLK 0
12 *1797:CLK 2.34823e-05
13 *1790:CLK 0
14 *1824:X 0
15 *389:174 0.000892591
16 *389:157 0.00197593
17 *389:143 0.000413807
18 *389:128 0.000960095
19 *389:107 0.000673063
20 *389:98 0.00118385
21 *389:90 0.0010464
22 *389:73 0.00110302
23 *389:60 0.000460212
24 *389:46 0.000574989
25 *389:38 0.00158842
26 *389:36 0.00254482
27 *389:25 0.00172674
28 *389:16 0.000389094
29 *389:10 0.00129794
30 *389:4 0.00183661
31 *1813:CLK *426:10 0
32 *1813:CLK *489:22 0
33 *389:16 *491:55 6.31905e-05
34 *389:38 *1854:A 2.30292e-05
35 *389:38 *404:12 0.000186414
36 *389:38 *426:10 2.74273e-05
37 *389:46 *404:14 0
38 *389:73 *489:22 0
39 *389:98 *1839:A 0.000191511
40 *389:98 *489:22 0.000113739
41 *389:128 *391:12 0
42 *389:143 *391:12 0.000191098
43 *389:174 *464:14 0
44 *1516:C *389:157 0.000244526
45 *1557:B1 *389:157 0
46 *1565:A2 *389:10 8.62783e-05
47 *1585:A2 *389:36 9.84794e-05
48 *1759:A *389:36 2.93845e-05
49 *1778:RESET_B *1778:CLK 1.94335e-05
50 *1781:D *389:174 4.39278e-05
51 *1781:RESET_B *389:174 6.17437e-06
52 *1814:D *389:90 6.17437e-06
53 *86:10 *389:36 9.67842e-05
54 *100:10 *389:46 4.83778e-05
55 *117:6 *1791:CLK 0.000149774
56 *123:10 *389:16 0.000138718
57 *142:10 *389:143 2.10502e-05
58 *153:39 *389:10 0
59 *153:39 *389:16 0
60 *161:8 *389:10 0.000260041
61 *161:98 *1817:CLK 2.93431e-05
62 *163:18 *389:10 0
63 *163:18 *389:16 0
64 *163:18 *389:25 3.18969e-05
65 *173:105 *389:157 0
66 *173:125 *389:157 8.40156e-05
67 *200:54 *389:10 0.000392616
68 *200:82 *389:157 0
69 *239:6 *389:36 0.000515892
70 *239:34 *389:36 5.3304e-05
71 *239:49 *389:10 0.000409097
72 *239:70 *389:157 7.78214e-05
73 *241:10 *389:157 0.000166233
74 *241:12 *389:157 0.000861014
75 *243:10 *389:157 0
76 *254:111 *389:157 0
77 *263:43 *389:16 4.74546e-05
78 *263:57 *389:36 2.93747e-05
79 *269:10 *389:157 0
80 *279:49 *389:10 0
81 *279:49 *389:157 5.94125e-05
82 *280:12 *389:10 1.42125e-05
83 *281:8 *389:157 0
84 *283:8 *389:157 0
85 *305:16 *389:36 2.80512e-05
86 *314:25 *389:16 0.00018745
87 *331:27 *1813:CLK 2.86064e-05
88 *349:26 *389:16 2.14538e-05
89 *349:41 *389:174 0
90 *359:114 *389:90 0.000249909
91 *360:147 *1813:CLK 6.25829e-05
92 *360:160 *1813:CLK 5.40337e-05
93 *360:178 *389:174 0
94 *361:42 *389:16 0.000585046
95 *361:61 *1813:CLK 6.17437e-06
96 *380:67 *1817:CLK 1.83408e-05
97 *381:12 *389:90 0.000106627
98 *381:12 *389:98 0
99 *381:12 *389:128 1.12487e-05
100 *382:16 *389:107 0.000143078
101 *382:16 *389:128 0.000645903
102 *382:30 *1778:CLK 9.41704e-05
103 *382:30 *389:98 0
104 *382:30 *389:107 5.56356e-05
105 *383:146 *389:16 0.000321354
106 *384:108 *389:98 0
107 *386:64 *389:10 0.000176608
*RES
1 *1824:X *389:4 23 
2 *389:4 *389:10 29.4379 
3 *389:10 *389:16 27.47 
4 *389:16 *1790:CLK 23 
5 *389:10 *389:25 17.0507 
6 *389:25 *1797:CLK 23.4971 
7 *389:25 *389:36 20.6521 
8 *389:36 *389:38 13.0086 
9 *389:38 *389:46 41.3307 
10 *389:46 *1774:CLK 23 
11 *389:38 *1784:CLK 23.8493 
12 *389:36 *389:60 15 
13 *389:60 *1813:CLK 42.7643 
14 *389:60 *389:73 4.01857 
15 *389:73 *1791:CLK 43.2821 
16 *389:73 *389:90 26.2271 
17 *389:90 *389:98 40.295 
18 *389:98 *1778:CLK 32.1971 
19 *389:98 *389:107 2.52714 
20 *389:107 *1815:CLK 23 
21 *389:107 *389:128 42.5321 
22 *389:128 *1816:CLK 23 
23 *389:128 *389:143 38.5757 
24 *389:143 *1780:CLK 23 
25 *389:90 *1814:CLK 23 
26 *389:4 *389:157 38.3864 
27 *389:157 *1817:CLK 38.6214 
28 *389:157 *389:174 28.2157 
29 *389:174 *1781:CLK 23 
*END

*D_NET *390 0.0252807
*CONN
*I *1771:CLK I *D sky130_fd_sc_hd__dfrtp_2
*I *1819:CLK I *D sky130_fd_sc_hd__dfrtp_1
*I *1818:CLK I *D sky130_fd_sc_hd__dfrtp_1
*I *1786:CLK I *D sky130_fd_sc_hd__dfrtp_1
*I *1820:CLK I *D sky130_fd_sc_hd__dfrtp_2
*I *1805:CLK I *D sky130_fd_sc_hd__dfrtp_4
*I *1773:CLK I *D sky130_fd_sc_hd__dfrtp_1
*I *1769:CLK I *D sky130_fd_sc_hd__dfrtp_1
*I *1770:CLK I *D sky130_fd_sc_hd__dfrtp_1
*I *1801:CLK I *D sky130_fd_sc_hd__dfrtp_4
*I *1812:CLK I *D sky130_fd_sc_hd__dfrtp_2
*I *1788:CLK I *D sky130_fd_sc_hd__dfrtp_2
*I *1825:X O *D sky130_fd_sc_hd__clkbuf_16
*CAP
1 *1771:CLK 0.000152155
2 *1819:CLK 0
3 *1818:CLK 0
4 *1786:CLK 0
5 *1820:CLK 0
6 *1805:CLK 0
7 *1773:CLK 0.000377022
8 *1769:CLK 0
9 *1770:CLK 0.000263215
10 *1801:CLK 0
11 *1812:CLK 0.000316366
12 *1788:CLK 0
13 *1825:X 0.000307939
14 *390:149 0.000758234
15 *390:139 0.00161927
16 *390:126 0.000792756
17 *390:122 0.00177909
18 *390:113 0.000571833
19 *390:107 0.000849488
20 *390:78 0.000610097
21 *390:72 0.000987119
22 *390:70 0.000195633
23 *390:53 0.000787027
24 *390:42 0.000600044
25 *390:38 0.000721225
26 *390:25 0.000802176
27 *390:14 0.000651515
28 *390:10 0.000672204
29 *1770:CLK *458:20 0.00014196
30 *1771:CLK *1706:A2 2.30292e-05
31 *1773:CLK *1695:A2 0.000106289
32 *1773:CLK *420:10 8.06039e-05
33 *1773:CLK *421:12 0.000138719
34 *1773:CLK *479:8 8.44562e-05
35 *1812:CLK *1595:A1 4.56889e-05
36 *390:42 *483:26 0.000497713
37 *390:53 *483:26 0.000259067
38 *390:70 *479:12 0.000487361
39 *390:78 *1662:A 0.000137368
40 *390:78 *479:8 1.46784e-05
41 *390:78 *495:61 0.000137368
42 *390:78 *497:8 0
43 *390:113 *398:22 0.000416238
44 *390:122 *398:22 0.000191267
45 *390:139 *398:22 0.000368277
46 *390:139 *465:12 6.66431e-05
47 *390:149 *449:8 8.85189e-05
48 *390:149 *465:12 0.00010776
49 *1433:A1 *390:10 0.000141355
50 *1433:A2 *390:10 0.000128284
51 *1433:B1 *390:10 5.58003e-05
52 *1437:C1 *1771:CLK 7.3685e-05
53 *1437:C1 *390:113 9.70835e-05
54 *1532:A2_N *390:113 2.46906e-05
55 *1595:A2 *1812:CLK 5.3304e-05
56 *1706:B1 *1771:CLK 2.93747e-05
57 *1781:RESET_B *390:149 0
58 *1788:D *390:25 7.87147e-05
59 *1801:D *390:42 4.34973e-05
60 *1801:D *390:53 6.9805e-05
61 *1812:D *1812:CLK 5.82853e-05
62 *1819:RESET_B *390:139 2.90547e-05
63 *39:10 *1771:CLK 0.000181919
64 *61:8 *1812:CLK 3.31127e-05
65 *61:8 *390:38 7.03869e-05
66 *74:10 *390:53 3.81391e-05
67 *99:6 *1773:CLK 5.50106e-05
68 *153:117 *390:113 0.000399727
69 *153:123 *1812:CLK 0.000401728
70 *153:123 *390:38 0.000412668
71 *153:123 *390:107 0.000250306
72 *161:86 *390:113 0
73 *162:22 *1812:CLK 5.11812e-05
74 *162:22 *390:38 8.12861e-05
75 *162:22 *390:107 6.12914e-05
76 *162:89 *390:107 0.000131067
77 *164:14 *390:113 0.000139977
78 *173:83 *390:10 0.000406893
79 *256:8 *390:42 0.000254293
80 *256:55 *390:42 0.000136738
81 *259:83 *390:113 8.64543e-05
82 *263:114 *390:42 0.000224605
83 *266:155 *390:10 0.000404661
84 *313:12 *1812:CLK 5.5792e-05
85 *313:22 *1812:CLK 0.000218628
86 *321:21 *1770:CLK 0.000432548
87 *321:21 *390:53 0.00020786
88 *339:154 *390:78 0
89 *339:164 *390:70 0.000255723
90 *358:8 *390:78 0
91 *358:29 *1773:CLK 0.000194318
92 *358:29 *390:78 0.000219891
93 *359:18 *1770:CLK 0
94 *359:18 *390:78 0
95 *375:10 *390:78 0.000187612
96 *380:103 *390:126 0.000230051
97 *380:116 *390:126 0.000312455
98 *381:90 *1773:CLK 0
99 *381:90 *390:78 0
100 *382:178 *390:149 0.000187406
101 *382:191 *390:126 0.000199539
102 *384:135 *390:53 1.20966e-05
103 *384:143 *1770:CLK 0.000191843
104 *384:143 *390:53 1.05441e-05
105 *385:92 *390:10 9.79925e-05
106 *385:100 *1812:CLK 0.000153131
107 *385:100 *390:10 0.000201502
*RES
1 *1825:X *390:10 48.8129 
2 *390:10 *390:14 20.3857 
3 *390:14 *1788:CLK 23 
4 *390:14 *390:25 19.93 
5 *390:25 *1812:CLK 47.7357 
6 *390:25 *390:38 5.77929 
7 *390:38 *390:42 25.15 
8 *390:42 *1801:CLK 23 
9 *390:42 *390:53 23.3479 
10 *390:53 *1770:CLK 45.3536 
11 *390:53 *390:70 21.8357 
12 *390:70 *390:72 15 
13 *390:72 *390:78 27.6357 
14 *390:78 *1769:CLK 23 
15 *390:72 *1773:CLK 47.2179 
16 *390:70 *1805:CLK 23 
17 *390:38 *390:107 21.5457 
18 *390:107 *390:113 26.165 
19 *390:113 *1820:CLK 38 
20 *390:113 *390:122 2.61 
21 *390:122 *390:126 31.82 
22 *390:126 *1786:CLK 23 
23 *390:122 *390:139 28.6921 
24 *390:139 *390:149 44.8107 
25 *390:149 *1818:CLK 23 
26 *390:139 *1819:CLK 23 
27 *390:107 *1771:CLK 26.9564 
*END

*D_NET *391 0.0102578
*CONN
*I *1642:A0 I *D sky130_fd_sc_hd__mux2_1
*I *1859:X O *D sky130_fd_sc_hd__buf_1
*CAP
1 *1642:A0 8.26034e-05
2 *1859:X 6.94194e-05
3 *391:14 0.0016454
4 *391:12 0.00259303
5 *391:8 0.00109966
6 *391:8 *392:18 9.84794e-05
7 *391:12 *392:22 0
8 *391:14 *1693:A0 0.000351371
9 *391:14 *392:22 0
10 *391:14 *409:14 0.00101775
11 *391:14 *485:16 0.000218382
12 *1617:B1_N *391:14 0.00024604
13 *1762:A *391:12 8.44544e-05
14 *87:8 *391:14 1.37349e-05
15 *88:8 *391:12 0.000196549
16 *140:10 *391:14 8.4047e-05
17 *278:61 *391:14 0.000126343
18 *278:69 *391:14 0.00122657
19 *331:27 *391:14 0.00015507
20 *339:61 *391:14 0.000139647
21 *339:69 *1642:A0 9.84851e-05
22 *359:114 *391:14 0
23 *360:113 *391:14 2.47097e-05
24 *360:132 *391:14 0
25 *360:147 *391:14 0
26 *383:12 *391:14 0.000117908
27 *385:12 *391:12 0.000130673
28 *385:26 *391:14 0
29 *385:41 *391:14 1.12487e-05
30 *385:51 *391:14 0.000235074
31 *389:128 *391:12 0
32 *389:143 *391:12 0.000191098
*RES
1 *1859:X *391:8 39.0979 
2 *391:8 *391:12 22.5993 
3 *391:12 *391:14 45.2193 
4 *391:14 *1642:A0 39.5743 
*END

*D_NET *392 0.00756971
*CONN
*I *1659:A1 I *D sky130_fd_sc_hd__a31o_1
*I *1860:X O *D sky130_fd_sc_hd__buf_1
*CAP
1 *1659:A1 0
2 *1860:X 0.00124934
3 *392:22 0.00133564
4 *392:20 0.00133564
5 *392:18 0.00124934
6 *1583:B2 *392:22 0.00035542
7 *1762:A *392:22 0.000139719
8 *37:13 *392:18 0.000308813
9 *89:8 *392:22 0.000112396
10 *106:8 *392:22 6.92075e-05
11 *278:61 *392:22 0
12 *278:69 *392:22 0
13 *360:162 *392:22 0.0011146
14 *385:12 *392:22 0.000201121
15 *391:8 *392:18 9.84794e-05
16 *391:12 *392:22 0
17 *391:14 *392:22 0
*RES
1 *1860:X *392:18 45.4336 
2 *392:18 *392:20 15 
3 *392:20 *392:22 35.7114 
4 *392:22 *1659:A1 38 
*END

*D_NET *393 0.00709694
*CONN
*I *1657:A1 I *D sky130_fd_sc_hd__a31o_1
*I *1861:X O *D sky130_fd_sc_hd__buf_1
*CAP
1 *1657:A1 0
2 *1861:X 0
3 *393:12 0.000381842
4 *393:6 0.00288087
5 *393:4 0.00249903
6 *393:6 *1881:A 2.93845e-05
7 *393:6 *1893:A 0.000128401
8 *393:6 *402:8 0.000185434
9 *393:12 *402:18 0.000242215
10 *393:12 *486:8 9.19022e-06
11 product[8] *393:6 1.32939e-05
12 *1725:A *393:6 5.56279e-05
13 *1869:A *393:6 7.88926e-05
14 *15:15 *393:6 0.000201109
15 *55:10 *393:6 5.56279e-05
16 *355:10 *393:12 0.00033602
*RES
1 *1861:X *393:4 23 
2 *393:4 *393:6 44.4529 
3 *393:6 *393:12 37.8921 
4 *393:12 *1657:A1 23 
*END

*D_NET *394 0.00553818
*CONN
*I *1655:A1 I *D sky130_fd_sc_hd__a31o_1
*I *1862:X O *D sky130_fd_sc_hd__clkbuf_1
*CAP
1 *1655:A1 0
2 *1862:X 0
3 *394:10 0.0022477
4 *394:4 0.0022477
5 *1651:A3 *394:10 1.80023e-05
6 *1655:A3 *394:10 4.57776e-05
7 *16:13 *394:10 5.70419e-05
8 *266:79 *394:10 1.09886e-05
9 *354:10 *394:10 0.00034475
10 *360:24 *394:10 0.000138791
11 *382:82 *394:10 0.000427428
*RES
1 *1862:X *394:4 23 
2 *394:4 *394:10 48.93 
3 *394:10 *1655:A1 38 
*END

*D_NET *395 0.0223659
*CONN
*I *1653:A1 I *D sky130_fd_sc_hd__a31o_1
*I *1863:X O *D sky130_fd_sc_hd__buf_1
*CAP
1 *1653:A1 0
2 *1863:X 0
3 *395:24 0.00289486
4 *395:12 0.00448203
5 *395:10 0.0025087
6 *395:6 0.000921528
7 *395:10 *415:27 0.000327979
8 *395:10 *457:8 0.000249664
9 *395:12 *397:8 0.000611592
10 *395:12 *415:25 0.00222147
11 *395:12 *415:27 7.05544e-05
12 *395:12 *457:8 0.000226657
13 *395:12 *482:8 0.000408706
14 *395:24 *397:18 0.0014657
15 *395:24 *487:39 4.49877e-05
16 product[2] *395:12 5.02657e-05
17 *1874:A *395:10 0
18 *3:13 *395:24 0.00483774
19 *17:15 *395:10 8.62073e-06
20 *303:63 *395:24 0.000359813
21 *359:49 *395:24 0.000158239
22 *360:24 *395:24 0.000200651
23 *360:72 *395:24 2.6427e-05
24 *383:86 *395:24 0.000188934
25 *383:99 *395:24 0.000100803
*RES
1 *1863:X *395:6 38 
2 *395:6 *395:10 21.4911 
3 *395:10 *395:12 45.7993 
4 *395:12 *395:24 46.4962 
5 *395:24 *1653:A1 23 
*END

*D_NET *396 0.00403042
*CONN
*I *1651:A1 I *D sky130_fd_sc_hd__a31o_1
*I *1864:X O *D sky130_fd_sc_hd__clkbuf_1
*CAP
1 *1651:A1 0
2 *1864:X 0.00151756
3 *396:16 0.000339479
4 *396:6 0.00185704
5 *396:6 *498:DIODE 9.71035e-05
6 *396:6 *408:28 0.00015031
7 *396:16 *409:14 1.67942e-05
8 *1651:A2 *396:16 1.14452e-05
9 *18:9 *396:6 4.06849e-05
10 *352:10 *396:16 0
*RES
1 *1864:X *396:6 44.1079 
2 *396:6 *396:16 35.4893 
3 *396:16 *1651:A1 23 
*END

*D_NET *397 0.00915432
*CONN
*I *1649:A1 I *D sky130_fd_sc_hd__a31o_1
*I *1865:X O *D sky130_fd_sc_hd__buf_1
*CAP
1 *1649:A1 0
2 *1865:X 0.000278169
3 *397:18 0.00300411
4 *397:8 0.00328227
5 *397:18 *486:33 0
6 *19:15 *397:8 7.17358e-06
7 *259:180 *397:18 2.33476e-05
8 *303:47 *397:18 0.000436226
9 *359:32 *397:18 0
10 *360:72 *397:18 4.57385e-05
11 *395:12 *397:8 0.000611592
12 *395:24 *397:18 0.0014657
*RES
1 *1865:X *397:8 46.0682 
2 *397:8 *397:18 39.9637 
3 *397:18 *1649:A1 23 
*END

*D_NET *398 0.00766693
*CONN
*I *1646:C I *D sky130_fd_sc_hd__and3_1
*I *1866:X O *D sky130_fd_sc_hd__clkbuf_1
*CAP
1 *1646:C 1.54943e-05
2 *1866:X 0.00031752
3 *398:22 0.00223659
4 *398:8 0.00253861
5 *398:22 *1526:A1 0
6 *398:22 *452:8 0
7 *398:22 *473:52 0.000139532
8 *398:22 *479:22 0
9 *398:22 *483:36 0
10 *1442:A1 *1646:C 2.12505e-05
11 *1450:A3 *398:22 4.68874e-05
12 *20:9 *398:8 3.22879e-05
13 *146:10 *398:22 0.000312672
14 *149:153 *398:22 0.000296106
15 *161:66 *398:22 0.000354508
16 *161:78 *398:22 0.000184893
17 *161:135 *398:22 0
18 *162:22 *398:22 0
19 *169:10 *398:22 0.000127262
20 *252:25 *398:22 0
21 *253:12 *398:22 6.75313e-05
22 *390:113 *398:22 0.000416238
23 *390:122 *398:22 0.000191267
24 *390:139 *398:22 0.000368277
*RES
1 *1866:X *398:8 41.9564 
2 *398:8 *398:22 43.8936 
3 *398:22 *1646:C 38.2279 
*END

*D_NET *399 0.000365137
*CONN
*I *1707:A I *D sky130_fd_sc_hd__buf_4
*I *1867:X O *D sky130_fd_sc_hd__clkbuf_1
*CAP
1 *1707:A 9.92145e-05
2 *1867:X 8.33542e-05
3 *399:8 0.000182569
4 *399:8 *404:14 0
*RES
1 *1867:X *399:8 39.2014 
2 *399:8 *1707:A 39.9471 
*END

*D_NET *400 0.0135004
*CONN
*I *1627:B I *D sky130_fd_sc_hd__nand2_8
*I *1530:B I *D sky130_fd_sc_hd__and2_1
*I *1646:B I *D sky130_fd_sc_hd__and3_1
*I *1540:A I *D sky130_fd_sc_hd__clkbuf_4
*I *1553:B I *D sky130_fd_sc_hd__nor2_1
*I *1868:X O *D sky130_fd_sc_hd__clkbuf_4
*CAP
1 *1627:B 0
2 *1530:B 0.000176207
3 *1646:B 2.41702e-05
4 *1540:A 0
5 *1553:B 0.000428519
6 *1868:X 0.000541102
7 *400:55 0.000495946
8 *400:36 0.00128086
9 *400:34 0.00156692
10 *400:28 0.00163421
11 *400:22 0.00121704
12 *400:10 0.0014865
13 *1553:B *479:22 0.000224308
14 *400:10 *415:25 2.57619e-05
15 *400:10 *415:27 0.000350868
16 *400:10 *495:10 6.79006e-05
17 *400:10 *495:21 0.000107651
18 *400:10 *495:38 6.07611e-06
19 *400:22 *1700:A 7.13022e-05
20 *400:22 *455:10 2.45549e-06
21 *400:36 *473:25 2.64616e-05
22 *400:36 *473:32 8.39276e-05
23 *400:36 *479:22 0.000582579
24 *1470:B1 *400:36 2.62931e-05
25 *1474:A2 *400:55 0
26 *1553:A *1553:B 2.16757e-05
27 *1591:A1 *400:34 2.98648e-05
28 *1591:B1 *400:34 5.3304e-05
29 *1700:B *400:22 0.000313524
30 *41:8 *400:10 0
31 *150:102 *400:55 0
32 *157:12 *400:36 2.64616e-05
33 *157:12 *400:55 0.000760438
34 *157:23 *400:36 4.79641e-05
35 *197:6 *400:34 0.000620648
36 *197:6 *400:36 0.000137368
37 *197:21 *400:34 0.000198628
38 *255:77 *1530:B 0
39 *255:77 *400:28 0
40 *277:6 *1553:B 2.93747e-05
41 *310:10 *400:34 5.45237e-05
42 *321:21 *1530:B 0.000224345
43 *321:21 *400:28 0.000169683
44 *339:139 *400:22 0.000103272
45 *341:8 *400:10 0
46 *350:12 *400:34 9.94233e-05
47 *381:100 *400:22 0.000129522
48 *381:110 *400:22 5.3304e-05
49 *384:153 *400:10 0
50 *386:12 *400:55 0
*RES
1 *1868:X *400:10 49.455 
2 *400:10 *400:22 29.9971 
3 *400:22 *400:28 19.785 
4 *400:28 *400:34 36.605 
5 *400:34 *400:36 8.24429 
6 *400:36 *1553:B 31.4307 
7 *400:36 *400:55 40.3571 
8 *400:55 *1540:A 23 
9 *400:34 *1646:B 23.4971 
10 *400:28 *1530:B 41.8114 
11 *400:22 *1627:B 23 
*END

*D_NET *401 0.00170617
*CONN
*I *1878:A I *D sky130_fd_sc_hd__clkbuf_4
*I *1826:A I *D sky130_fd_sc_hd__dlygate4sd3_1
*I *1773:Q O *D sky130_fd_sc_hd__dfrtp_1
*CAP
1 *1878:A 0.00021245
2 *1826:A 0.000279745
3 *1773:Q 0
4 *401:6 0.000492195
5 *1826:A *415:27 0.000141888
6 *1826:A *421:12 0.000271476
7 *1878:A *415:27 0.000296373
8 done *1878:A 1.20476e-05
*RES
1 *1773:Q *401:6 38 
2 *401:6 *1826:A 44.3386 
3 *401:6 *1878:A 43.1164 
*END

*D_NET *402 0.00337974
*CONN
*I *1640:A0 I *D sky130_fd_sc_hd__mux2_1
*I *1869:X O *D sky130_fd_sc_hd__clkbuf_1
*CAP
1 *1640:A0 0
2 *1869:X 0.000199382
3 *402:18 0.000843082
4 *402:8 0.00104246
5 *402:18 *1640:A1 5.82853e-05
6 *402:18 *1648:B2 0.000179962
7 *402:18 *490:20 0.000116375
8 *1648:B1 *402:18 0.000170167
9 *259:133 *402:18 8.3967e-05
10 *259:135 *402:18 1.35714e-05
11 *303:20 *402:18 0
12 *314:86 *402:18 0.000200334
13 *314:109 *402:18 4.44955e-05
14 *393:6 *402:8 0.000185434
15 *393:12 *402:18 0.000242215
*RES
1 *1869:X *402:8 41.0036 
2 *402:8 *402:18 31.82 
3 *402:18 *1640:A0 23 
*END

*D_NET *403 0.00142504
*CONN
*I *1843:A I *D sky130_fd_sc_hd__dlygate4sd3_1
*I *1879:A I *D sky130_fd_sc_hd__clkbuf_4
*I *1774:Q O *D sky130_fd_sc_hd__dfrtp_1
*CAP
1 *1843:A 0
2 *1879:A 0.000485105
3 *1774:Q 7.87035e-05
4 *403:12 0.000562877
5 *403:8 0.000156476
6 *403:8 *448:8 0
7 *403:8 *489:22 0.000141879
8 *381:12 *403:8 0
*RES
1 *1774:Q *403:8 39.9057 
2 *403:8 *403:12 16.0979 
3 *403:12 *1879:A 31.2443 
4 *403:12 *1843:A 23 
*END

*D_NET *404 0.00534495
*CONN
*I *1854:A I *D sky130_fd_sc_hd__dlygate4sd3_1
*I *1880:A I *D sky130_fd_sc_hd__clkbuf_4
*I *1784:Q O *D sky130_fd_sc_hd__dfrtp_1
*CAP
1 *1854:A 2.16597e-05
2 *1880:A 0
3 *1784:Q 0
4 *404:14 0.00211981
5 *404:12 0.00249481
6 *404:4 0.000396658
7 *1854:A *426:10 6.17437e-06
8 *100:10 *404:14 0
9 *104:10 *404:14 9.63918e-05
10 *110:12 *404:12 0
11 *380:10 *404:14 0
12 *380:18 *404:14 0
13 *380:24 *404:14 0
14 *382:30 *404:14 0
15 *384:12 *404:12 0
16 *384:12 *404:14 0
17 *389:38 *1854:A 2.30292e-05
18 *389:38 *404:12 0.000186414
19 *389:46 *404:14 0
20 *399:8 *404:14 0
*RES
1 *1784:Q *404:4 23 
2 *404:4 *404:12 22.1568 
3 *404:12 *404:14 41.5218 
4 *404:14 *1880:A 38 
5 *404:4 *1854:A 23.6214 
*END

*D_NET *405 0.00144648
*CONN
*I *1835:A I *D sky130_fd_sc_hd__dlygate4sd3_1
*I *1881:A I *D sky130_fd_sc_hd__clkbuf_4
*I *1785:Q O *D sky130_fd_sc_hd__dfrtp_1
*CAP
1 *1835:A 0
2 *1881:A 0.000201119
3 *1785:Q 0.000339001
4 *405:10 0.00054012
5 *1881:A *487:59 6.16531e-05
6 *405:10 *407:27 0.000111852
7 *405:10 *487:59 0.000163352
8 *393:6 *1881:A 2.93845e-05
*RES
1 *1785:Q *405:10 43.2614 
2 *405:10 *1881:A 41.5836 
3 *405:10 *1835:A 38 
*END

*D_NET *406 0.00150834
*CONN
*I *1882:A I *D sky130_fd_sc_hd__clkbuf_4
*I *1853:A I *D sky130_fd_sc_hd__dlygate4sd3_1
*I *1786:Q O *D sky130_fd_sc_hd__dfrtp_1
*CAP
1 *1882:A 0
2 *1853:A 0
3 *1786:Q 8.04686e-05
4 *406:21 0.000673701
5 *406:8 0.000754169
6 *406:21 *415:27 0
7 *406:21 *459:10 0
*RES
1 *1786:Q *406:8 24.595 
2 *406:8 *1853:A 23 
3 *406:8 *406:21 42.8014 
4 *406:21 *1882:A 23 
*END

*D_NET *407 0.00418849
*CONN
*I *1883:A I *D sky130_fd_sc_hd__buf_2
*I *1850:A I *D sky130_fd_sc_hd__dlygate4sd3_1
*I *1787:Q O *D sky130_fd_sc_hd__dfrtp_1
*CAP
1 *1883:A 0.00097078
2 *1850:A 0
3 *1787:Q 3.92298e-05
4 *407:27 0.00143402
5 *407:14 0.00022365
6 *407:6 0.000726116
7 *1883:A *440:6 0.00030974
8 *1672:S *407:14 0
9 *1785:D *407:6 5.50049e-05
10 *1785:D *407:27 0.000140259
11 *111:10 *407:14 1.6279e-05
12 *325:24 *407:14 5.75164e-05
13 *325:24 *407:27 0
14 *388:80 *407:27 0.000104048
15 *405:10 *407:27 0.000111852
*RES
1 *1787:Q *407:6 23.6214 
2 *407:6 *407:14 33.8114 
3 *407:14 *1850:A 23 
4 *407:6 *407:27 37.4157 
5 *407:27 *1883:A 39.3643 
*END

*D_NET *408 0.0229047
*CONN
*I *1830:A I *D sky130_fd_sc_hd__dlygate4sd3_1
*I *1884:A I *D sky130_fd_sc_hd__clkbuf_4
*I *498:DIODE I *D sky130_fd_sc_hd__diode_2
*I *1788:Q O *D sky130_fd_sc_hd__dfrtp_2
*CAP
1 *1830:A 0.000112551
2 *1884:A 0
3 *498:DIODE 0.000164496
4 *1788:Q 0
5 *408:28 0.00381675
6 *408:16 0.0102306
7 *408:4 0.00669088
8 *408:16 *469:29 0.00012483
9 *3:13 *408:28 0
10 *259:94 *408:16 0.000207347
11 *278:113 *408:16 0
12 *278:121 *408:16 0
13 *325:14 *408:16 0.000255583
14 *360:24 *408:28 0.000556605
15 *360:72 *408:16 0
16 *382:92 *408:28 0.000497653
17 *396:6 *498:DIODE 9.71035e-05
18 *396:6 *408:28 0.00015031
*RES
1 *1788:Q *408:4 23 
2 *408:4 *408:16 49.8559 
3 *408:16 *408:28 47.672 
4 *408:28 *498:DIODE 26.48 
5 *408:28 *1884:A 23 
6 *408:4 *1830:A 24.9471 
*END

*D_NET *409 0.00910735
*CONN
*I *1848:A I *D sky130_fd_sc_hd__dlygate4sd3_1
*I *1885:A I *D sky130_fd_sc_hd__clkbuf_4
*I *1789:Q O *D sky130_fd_sc_hd__dfrtp_1
*CAP
1 *1848:A 0
2 *1885:A 0
3 *1789:Q 0
4 *409:29 0.000255856
5 *409:14 0.00183152
6 *409:8 0.00203163
7 *409:4 0.000455972
8 *409:8 *481:31 4.67488e-05
9 *409:14 *447:8 8.78864e-05
10 *409:14 *476:77 2.5415e-05
11 *1651:A2 *409:14 0
12 *1655:A2 *409:14 0
13 *1733:A *409:29 3.7122e-06
14 *1751:A *409:14 0
15 *1789:RESET_B *409:8 3.46673e-05
16 *1789:RESET_B *409:29 8.06804e-06
17 *1793:CLK *409:14 6.4393e-05
18 *278:71 *409:29 1.14452e-05
19 *278:81 *409:29 0.000484273
20 *360:113 *409:14 0
21 *383:31 *409:29 0.000185655
22 *383:44 *409:29 0
23 *384:54 *409:14 0
24 *385:51 *409:14 0.000634002
25 *385:55 *409:14 0.00123219
26 *387:76 *409:14 0.00034794
27 *387:93 *409:14 0.000331425
28 *391:14 *409:14 0.00101775
29 *396:16 *409:14 1.67942e-05
*RES
1 *1789:Q *409:4 23 
2 *409:4 *409:8 17.5271 
3 *409:8 *409:14 48.575 
4 *409:14 *1885:A 38 
5 *409:4 *409:29 37.105 
6 *409:29 *1848:A 23 
*END

*D_NET *410 0.00295217
*CONN
*I *1842:A I *D sky130_fd_sc_hd__dlygate4sd3_1
*I *1886:A I *D sky130_fd_sc_hd__clkbuf_4
*I *1775:Q O *D sky130_fd_sc_hd__dfrtp_1
*CAP
1 *1842:A 5.62571e-05
2 *1886:A 0
3 *1775:Q 0
4 *410:12 0.00116781
5 *410:4 0.00122407
6 *381:37 *1842:A 6.11945e-05
7 *381:37 *410:12 0.0002604
8 *387:133 *410:12 0.000182435
*RES
1 *1775:Q *410:4 23 
2 *410:4 *410:12 47.1721 
3 *410:12 *1886:A 23 
4 *410:4 *1842:A 24.4707 
*END

*D_NET *411 0.00222913
*CONN
*I *1887:A I *D sky130_fd_sc_hd__clkbuf_4
*I *1845:A I *D sky130_fd_sc_hd__dlygate4sd3_1
*I *1776:Q O *D sky130_fd_sc_hd__dfrtp_1
*CAP
1 *1887:A 0.000328402
2 *1845:A 0.000347283
3 *1776:Q 7.70667e-05
4 *411:8 0.000752751
5 *1845:A *415:25 0.00011218
6 *1845:A *450:12 0.000274701
7 *1887:A *415:25 0.000336746
8 *49:10 *1845:A 0
*RES
1 *1776:Q *411:8 39.0979 
2 *411:8 *1845:A 46.3479 
3 *411:8 *1887:A 46.5964 
*END

*D_NET *412 0.00201674
*CONN
*I *1834:A I *D sky130_fd_sc_hd__dlygate4sd3_1
*I *1888:A I *D sky130_fd_sc_hd__clkbuf_4
*I *1777:Q O *D sky130_fd_sc_hd__dfrtp_1
*CAP
1 *1834:A 0.000216542
2 *1888:A 0.000347842
3 *1777:Q 0.000179601
4 *412:8 0.000743985
5 *1834:A *486:33 0
6 *1834:A *487:39 2.5415e-05
7 *1888:A *487:39 9.47917e-06
8 *412:8 *487:43 9.84851e-05
9 *1720:A *1888:A 4.04684e-05
10 *266:59 *1834:A 0.000330781
11 *266:59 *1888:A 1.01436e-05
12 *314:73 *412:8 1.40004e-05
13 *388:49 *1834:A 0
*RES
1 *1777:Q *412:8 40.5271 
2 *412:8 *1888:A 44.0693 
3 *412:8 *1834:A 42.7229 
*END

*D_NET *413 0.0037189
*CONN
*I *1638:A0 I *D sky130_fd_sc_hd__mux2_1
*I *1870:X O *D sky130_fd_sc_hd__clkbuf_1
*CAP
1 *1638:A0 0
2 *1870:X 0.000298084
3 *413:24 0.000790682
4 *413:12 0.00108877
5 *413:24 *1638:A1 5.56279e-05
6 *1638:S *413:24 0
7 *1777:CLK *413:24 0.000336166
8 *1870:A *413:12 4.06849e-05
9 *126:12 *413:24 8.33469e-05
10 *345:10 *413:24 5.27729e-05
11 *353:10 *413:24 0.000367881
12 *383:86 *413:24 2.35393e-05
13 *387:29 *413:24 0.000581347
*RES
1 *1870:X *413:12 42.0289 
2 *413:12 *413:24 32.7418 
3 *413:24 *1638:A0 23 
*END

*D_NET *414 0.00273282
*CONN
*I *1889:A I *D sky130_fd_sc_hd__clkbuf_4
*I *1839:A I *D sky130_fd_sc_hd__dlygate4sd3_1
*I *1778:Q O *D sky130_fd_sc_hd__dfrtp_1
*CAP
1 *1889:A 0
2 *1839:A 0.000286145
3 *1778:Q 0
4 *414:25 0.000845094
5 *414:6 0.00113124
6 *1839:A *443:6 8.18192e-05
7 *1685:S *1839:A 2.33476e-05
8 *31:12 *414:25 2.10502e-05
9 *380:18 *414:25 0
10 *380:24 *1839:A 0
11 *380:24 *414:25 0
12 *381:12 *1839:A 0
13 *381:12 *414:25 0
14 *382:16 *414:25 0
15 *382:30 *1839:A 0.000152615
16 *389:98 *1839:A 0.000191511
*RES
1 *1778:Q *414:6 38 
2 *414:6 *1839:A 44.815 
3 *414:6 *414:25 30.225 
4 *414:25 *1889:A 23 
*END

*D_NET *415 0.014235
*CONN
*I *1890:A I *D sky130_fd_sc_hd__buf_2
*I *1683:A1 I *D sky130_fd_sc_hd__mux2_1
*I *1779:Q O *D sky130_fd_sc_hd__dfrtp_1
*CAP
1 *1890:A 0
2 *1683:A1 0
3 *1779:Q 0
4 *415:27 0.00208048
5 *415:25 0.00302126
6 *415:21 0.0017502
7 *415:12 0.000574656
8 *415:4 0.00138408
9 *415:27 *422:8 4.334e-05
10 *415:27 *455:10 0.000163823
11 *415:27 *457:8 0.000724968
12 *415:27 *459:10 0.000521968
13 *415:27 *495:38 0
14 product[5] *415:27 1.27424e-05
15 *1628:S *415:27 0
16 *1683:S *415:12 1.59094e-05
17 *1749:A *415:25 0
18 *1826:A *415:27 0.000141888
19 *1845:A *415:25 0.00011218
20 *1868:A *415:25 0
21 *1878:A *415:27 0.000296373
22 *1887:A *415:25 0.000336746
23 *17:15 *415:27 0
24 *19:15 *415:21 4.91172e-06
25 *42:10 *415:27 5.28455e-05
26 *78:10 *415:27 0
27 *339:154 *415:27 0
28 *381:94 *415:27 0
29 *384:153 *415:25 0
30 *384:153 *415:27 0
31 *395:10 *415:27 0.000327979
32 *395:12 *415:25 0.00222147
33 *395:12 *415:27 7.05544e-05
34 *400:10 *415:25 2.57619e-05
35 *400:10 *415:27 0.000350868
36 *406:21 *415:27 0
*RES
1 *1779:Q *415:4 23 
2 *415:4 *415:12 37.8714 
3 *415:12 *1683:A1 23 
4 *415:4 *415:21 25.15 
5 *415:21 *415:25 29.8182 
6 *415:25 *415:27 54.5511 
7 *415:27 *1890:A 38 
*END

*D_NET *416 0.00109096
*CONN
*I *1891:A I *D sky130_fd_sc_hd__clkbuf_4
*I *1836:A I *D sky130_fd_sc_hd__dlygate4sd3_1
*I *1780:Q O *D sky130_fd_sc_hd__dfrtp_1
*CAP
1 *1891:A 0
2 *1836:A 0
3 *1780:Q 4.06646e-05
4 *416:21 0.000328561
5 *416:6 0.000369226
6 *416:6 *441:10 3.26241e-05
7 *416:21 *441:10 0.00010766
8 *416:21 *491:65 0
9 *360:168 *416:6 3.46302e-05
10 *360:168 *416:21 6.4554e-05
11 *360:178 *416:21 0.000113044
12 *367:10 *416:21 0
*RES
1 *1780:Q *416:6 24.0979 
2 *416:6 *1836:A 23 
3 *416:6 *416:21 37.2707 
4 *416:21 *1891:A 23 
*END

*D_NET *417 0.000709855
*CONN
*I *1892:A I *D sky130_fd_sc_hd__clkbuf_4
*I *1844:A I *D sky130_fd_sc_hd__dlygate4sd3_1
*I *1781:Q O *D sky130_fd_sc_hd__dfrtp_1
*CAP
1 *1892:A 0
2 *1844:A 4.56634e-05
3 *1781:Q 0.000123521
4 *417:21 9.98654e-05
5 *417:6 0.00026905
6 *1781:RESET_B *1844:A 0.000139942
7 *1781:RESET_B *417:6 3.18142e-05
*RES
1 *1781:Q *417:6 25.0507 
2 *417:6 *1844:A 24.9471 
3 *417:6 *417:21 31.5536 
4 *417:21 *1892:A 23 
*END

*D_NET *418 0.00229642
*CONN
*I *1838:A I *D sky130_fd_sc_hd__dlygate4sd3_1
*I *1893:A I *D sky130_fd_sc_hd__clkbuf_4
*I *1782:Q O *D sky130_fd_sc_hd__dfrtp_1
*CAP
1 *1838:A 0.000348616
2 *1893:A 0.000316484
3 *1782:Q 0.000139785
4 *418:8 0.000804885
5 product[8] *1893:A 5.41385e-05
6 *60:8 *1838:A 6.00922e-06
7 *360:24 *1838:A 0
8 *360:24 *1893:A 0
9 *360:41 *1838:A 0.000186385
10 *363:8 *1838:A 0.000186385
11 *382:113 *418:8 5.13537e-05
12 *383:122 *1838:A 4.08641e-05
13 *383:122 *1893:A 3.31127e-05
14 *393:6 *1893:A 0.000128401
*RES
1 *1782:Q *418:8 40.0507 
2 *418:8 *1893:A 44.5457 
3 *418:8 *1838:A 44.7736 
*END

*D_NET *419 0.00301429
*CONN
*I *1894:A I *D sky130_fd_sc_hd__clkbuf_4
*I *1840:A I *D sky130_fd_sc_hd__dlygate4sd3_1
*I *1783:Q O *D sky130_fd_sc_hd__dfrtp_1
*CAP
1 *1894:A 0
2 *1840:A 0.000152616
3 *1783:Q 0
4 *419:29 0.000694487
5 *419:4 0.000847103
6 *419:29 *1632:A0 0.000365699
7 *419:29 *489:22 0.000325198
8 *1748:A *419:29 1.59912e-05
9 *1783:RESET_B *1840:A 2.50118e-05
10 *339:88 *419:29 2.93747e-05
11 *382:51 *419:29 0.000325198
12 *382:68 *1840:A 0.000233617
*RES
1 *1783:Q *419:4 23 
2 *419:4 *1840:A 26.8529 
3 *419:4 *419:29 44.8521 
4 *419:29 *1894:A 23 
*END

*D_NET *420 0.00592321
*CONN
*I *1695:A2 I *D sky130_fd_sc_hd__o21a_1
*I *1671:B2 I *D sky130_fd_sc_hd__a22o_1
*I *1706:A2 I *D sky130_fd_sc_hd__a21oi_1
*I *1663:B I *D sky130_fd_sc_hd__nand2_4
*I *1895:X O *D sky130_fd_sc_hd__clkbuf_2
*CAP
1 *1695:A2 0.000338465
2 *1671:B2 0.000257386
3 *1706:A2 0.0006257
4 *1663:B 5.86413e-05
5 *1895:X 0.000157118
6 *420:29 0.0009656
7 *420:16 0.000507142
8 *420:10 0.000861569
9 *1663:B *1663:A 0
10 *1663:B *493:14 4.9662e-05
11 *1671:B2 *424:12 0.000154434
12 *420:10 *483:26 3.22051e-05
13 *420:16 *1663:A 5.50106e-05
14 *420:16 *421:12 7.43845e-05
15 *420:16 *493:14 6.9805e-05
16 *420:29 *424:12 4.75114e-05
17 *1437:C1 *1706:A2 6.68617e-05
18 *1715:A *420:16 1.8788e-05
19 *1771:CLK *1706:A2 2.30292e-05
20 *1773:CLK *1695:A2 0.000106289
21 *1773:CLK *420:10 8.06039e-05
22 *39:10 *1706:A2 4.6373e-05
23 *99:6 *1695:A2 2.78276e-05
24 *163:134 *1706:A2 4.99815e-05
25 *359:8 *420:29 3.70187e-05
26 *381:71 *1671:B2 8.03164e-05
27 *381:71 *1706:A2 1.02561e-05
28 *381:71 *420:29 3.20305e-05
29 *381:73 *1663:B 9.75779e-05
30 *381:73 *420:16 0.000991628
*RES
1 *1895:X *420:10 40.8793 
2 *420:10 *420:16 26.6 
3 *420:16 *1663:B 24.595 
4 *420:16 *420:29 17.0818 
5 *420:29 *1706:A2 47.0832 
6 *420:29 *1671:B2 44.6596 
7 *420:10 *1695:A2 43.7171 
*END

*D_NET *421 0.00177906
*CONN
*I *1695:A1 I *D sky130_fd_sc_hd__o21a_1
*I *1826:X O *D sky130_fd_sc_hd__dlygate4sd3_1
*CAP
1 *1695:A1 0
2 *1826:X 0.000504109
3 *421:12 0.000504109
4 *1773:CLK *421:12 0.000138719
5 *1826:A *421:12 0.000271476
6 *46:10 *421:12 0.000189669
7 *381:73 *421:12 3.05357e-05
8 *381:90 *421:12 6.6054e-05
9 *420:16 *421:12 7.43845e-05
*RES
1 *1826:X *421:12 49.1236 
2 *421:12 *1695:A1 38 
*END

*D_NET *422 0.00238337
*CONN
*I *1699:A1 I *D sky130_fd_sc_hd__o21ai_1
*I *1698:A1 I *D sky130_fd_sc_hd__o21ai_1
*I *1837:X O *D sky130_fd_sc_hd__dlygate4sd3_1
*CAP
1 *1699:A1 1.47362e-05
2 *1698:A1 0.000145004
3 *1837:X 5.44451e-05
4 *422:14 0.000782367
5 *422:8 0.000677072
6 *1698:B1 *1698:A1 3.24141e-05
7 *1698:B1 *1699:A1 1.12349e-05
8 *1698:B1 *422:14 2.46906e-05
9 *1699:B1 *1698:A1 1.358e-05
10 *1702:A *422:14 6.34941e-05
11 *1702:B *422:14 5.56356e-05
12 *42:10 *422:14 0.000100477
13 *96:10 *422:14 0.000143549
14 *97:10 *1698:A1 8.06804e-06
15 *375:14 *422:14 0.00018536
16 *381:94 *422:8 2.79004e-05
17 *415:27 *422:8 4.334e-05
*RES
1 *1837:X *422:8 39.2014 
2 *422:8 *422:14 26.7036 
3 *422:14 *1698:A1 25.5479 
4 *422:14 *1699:A1 23.4971 
*END

*D_NET *423 0.00155158
*CONN
*I *1666:B1 I *D sky130_fd_sc_hd__o21ai_1
*I *1848:X O *D sky130_fd_sc_hd__dlygate4sd3_1
*CAP
1 *1666:B1 0
2 *1848:X 0.000186277
3 *423:8 0.000186277
4 *423:8 *453:6 0.000216939
5 *1666:A1 *423:8 7.38076e-05
6 *1667:B1 *423:8 3.91386e-05
7 *303:145 *423:8 0.000141052
8 *306:12 *423:8 1.22822e-05
9 *361:42 *423:8 0.000695805
*RES
1 *1848:X *423:8 31.265 
2 *423:8 *1666:B1 23 
*END

*D_NET *424 0.00304165
*CONN
*I *1636:A0 I *D sky130_fd_sc_hd__mux2_1
*I *1871:X O *D sky130_fd_sc_hd__clkbuf_1
*CAP
1 *1636:A0 0
2 *1871:X 0
3 *424:12 0.00121999
4 *424:6 0.00121999
5 *424:12 *479:12 4.04598e-06
6 *424:12 *479:16 1.73399e-05
7 *424:12 *493:8 8.85189e-05
8 *1671:B2 *424:12 0.000154434
9 *112:10 *424:12 0.000143166
10 *163:124 *424:12 0.000146643
11 *321:21 *424:12 0
12 *359:8 *424:12 0
13 *359:16 *424:12 0
14 *382:191 *424:12 0
15 *420:29 *424:12 4.75114e-05
*RES
1 *1871:X *424:6 38 
2 *424:6 *424:12 39.36 
3 *424:12 *1636:A0 23 
*END

*D_NET *425 0.00156468
*CONN
*I *1671:A2 I *D sky130_fd_sc_hd__a22o_1
*I *1853:X O *D sky130_fd_sc_hd__dlygate4sd3_1
*CAP
1 *1671:A2 0
2 *1853:X 8.26915e-05
3 *425:16 0.000643807
4 *425:8 0.000726498
5 *1671:A1 *425:16 3.28357e-06
6 *1671:B1 *425:16 5.07601e-05
7 *112:10 *425:16 5.76359e-05
*RES
1 *1853:X *425:8 39.2014 
2 *425:8 *425:16 27.9257 
3 *425:16 *1671:A2 23 
*END

*D_NET *426 0.000831931
*CONN
*I *1674:B2 I *D sky130_fd_sc_hd__a2bb2o_1
*I *1854:X O *D sky130_fd_sc_hd__dlygate4sd3_1
*CAP
1 *1674:B2 0
2 *1854:X 0.00037528
3 *426:10 0.00037528
4 *426:10 *489:22 4.31366e-05
5 *1813:CLK *426:10 0
6 *1854:A *426:10 6.17437e-06
7 *360:147 *426:10 0
8 *382:51 *426:10 4.6318e-06
9 *389:38 *426:10 2.74273e-05
*RES
1 *1854:X *426:10 43.3857 
2 *426:10 *1674:B2 38 
*END

*D_NET *427 0.000780772
*CONN
*I *1701:C1 I *D sky130_fd_sc_hd__o211ai_1
*I *1855:X O *D sky130_fd_sc_hd__dlygate4sd3_1
*CAP
1 *1701:C1 0
2 *1855:X 0.000107421
3 *427:6 0.000107421
4 *427:6 *1701:A1 7.032e-05
5 *427:6 *1855:A 0.000275403
6 *427:6 *496:19 0.000220206
*RES
1 *1855:X *427:6 27.4329 
2 *427:6 *1701:C1 23 
*END

*D_NET *428 0.00283917
*CONN
*I *1703:B1 I *D sky130_fd_sc_hd__o211ai_1
*I *1704:A1 I *D sky130_fd_sc_hd__o21ai_1
*I *1856:X O *D sky130_fd_sc_hd__dlygate4sd3_1
*CAP
1 *1703:B1 0.000389498
2 *1704:A1 0
3 *1856:X 0.000405521
4 *428:6 0.000795019
5 *1703:B1 *456:6 0.000710817
6 *1703:B1 *482:38 0.000397859
7 *428:6 *1856:A 5.50049e-05
8 *379:8 *1703:B1 1.10658e-05
9 *379:8 *428:6 7.43845e-05
*RES
1 *1856:X *428:6 29.3386 
2 *428:6 *1704:A1 23 
3 *428:6 *1703:B1 33.6886 
*END

*D_NET *429 0.000861666
*CONN
*I *1617:A1 I *D sky130_fd_sc_hd__a21bo_1
*I *1857:X O *D sky130_fd_sc_hd__dlygate4sd3_1
*CAP
1 *1617:A1 0
2 *1857:X 0.000228762
3 *429:6 0.000228762
4 *429:6 *468:12 0.000100477
5 *1754:A *429:6 0.000142459
6 *134:10 *429:6 6.70361e-05
7 *278:81 *429:6 9.41704e-05
*RES
1 *1857:X *429:6 28.3857 
2 *429:6 *1617:A1 23 
*END

*D_NET *430 0.000957928
*CONN
*I *1705:A1 I *D sky130_fd_sc_hd__a21bo_1
*I *1858:X O *D sky130_fd_sc_hd__dlygate4sd3_1
*CAP
1 *1705:A1 0
2 *1858:X 0.000214257
3 *430:8 0.000214257
4 *430:8 *1858:A 8.15864e-05
5 *1705:A2 *430:8 2.93845e-05
6 *339:119 *430:8 0.000313431
7 *377:18 *430:8 9.88386e-05
8 *381:116 *430:8 6.17437e-06
*RES
1 *1858:X *430:8 28.8829 
2 *430:8 *1705:A1 23 
*END

*D_NET *431 0.000411621
*CONN
*I *1621:A1 I *D sky130_fd_sc_hd__a22o_1
*I *1827:X O *D sky130_fd_sc_hd__dlygate4sd3_1
*CAP
1 *1621:A1 0.000172316
2 *1827:X 0.000172316
3 *133:16 *1621:A1 6.69899e-05
*RES
1 *1827:X *1621:A1 48.5479 
*END

*D_NET *432 0.000472277
*CONN
*I *1605:A1 I *D sky130_fd_sc_hd__a21o_1
*I *1828:X O *D sky130_fd_sc_hd__dlygate4sd3_1
*CAP
1 *1605:A1 0.000123867
2 *1828:X 4.63418e-05
3 *432:8 0.000170209
4 *1605:A2 *432:8 8.85189e-05
5 *359:18 *432:8 4.334e-05
*RES
1 *1828:X *432:8 39.2014 
2 *432:8 *1605:A1 40.4443 
*END

*D_NET *433 0.00196775
*CONN
*I *1595:A1 I *D sky130_fd_sc_hd__a22o_1
*I *1829:X O *D sky130_fd_sc_hd__dlygate4sd3_1
*CAP
1 *1595:A1 0.000813378
2 *1829:X 6.53587e-05
3 *433:8 0.000878737
4 *433:8 *472:8 3.88629e-05
5 *1595:A2 *1595:A1 2.64616e-05
6 *1812:CLK *1595:A1 4.56889e-05
7 *1812:D *1595:A1 4.09032e-05
8 *1812:RESET_B *1595:A1 2.8818e-05
9 *385:100 *1595:A1 2.95377e-05
*RES
1 *1829:X *433:8 39.2014 
2 *433:8 *1595:A1 48.6471 
*END

*D_NET *434 0.00155417
*CONN
*I *1668:B2 I *D sky130_fd_sc_hd__a32o_1
*I *1830:X O *D sky130_fd_sc_hd__dlygate4sd3_1
*CAP
1 *1668:B2 0.000147395
2 *1830:X 4.63418e-05
3 *434:8 0.000193736
4 *1668:B2 *458:20 0.000549284
5 *1668:B1 *1668:B2 0.000313931
6 *256:55 *434:8 4.334e-05
7 *360:87 *1668:B2 0.000171627
8 *360:87 *434:8 8.85189e-05
*RES
1 *1830:X *434:8 39.2014 
2 *434:8 *1668:B2 44.7114 
*END

*D_NET *435 0.000815891
*CONN
*I *1634:A0 I *D sky130_fd_sc_hd__mux2_1
*I *1872:X O *D sky130_fd_sc_hd__clkbuf_1
*CAP
1 *1634:A0 0
2 *1872:X 0.000363555
3 *435:6 0.000363555
4 *1635:A *435:6 3.22879e-05
5 *1872:A *435:6 5.12254e-05
6 *128:10 *435:6 5.26733e-06
*RES
1 *1872:X *435:6 27.9093 
2 *435:6 *1634:A0 23 
*END

*D_NET *436 0.000524337
*CONN
*I *1576:A1 I *D sky130_fd_sc_hd__a22o_1
*I *1831:X O *D sky130_fd_sc_hd__dlygate4sd3_1
*CAP
1 *1576:A1 8.80467e-05
2 *1831:X 4.50246e-05
3 *436:8 0.000133071
4 *436:8 *462:23 4.08641e-05
5 *436:8 *491:65 8.62876e-05
6 *1576:B2 *1576:A1 3.91386e-05
7 *278:42 *1576:A1 7.61466e-05
8 *296:10 *1576:A1 1.57571e-05
*RES
1 *1831:X *436:8 39.2014 
2 *436:8 *1576:A1 39.595 
*END

*D_NET *437 0.000526978
*CONN
*I *1626:A1 I *D sky130_fd_sc_hd__a22o_1
*I *1832:X O *D sky130_fd_sc_hd__dlygate4sd3_1
*CAP
1 *1626:A1 0.000121914
2 *1832:X 7.42056e-05
3 *437:8 0.000196119
4 *132:8 *437:8 8.57485e-05
5 *259:141 *1626:A1 4.24709e-05
6 *314:40 *437:8 6.51997e-06
*RES
1 *1832:X *437:8 39.5536 
2 *437:8 *1626:A1 40.0507 
*END

*D_NET *438 0.000453041
*CONN
*I *1610:A1 I *D sky130_fd_sc_hd__a22o_1
*I *1833:X O *D sky130_fd_sc_hd__dlygate4sd3_1
*CAP
1 *1610:A1 0.000158157
2 *1833:X 0.000158157
3 *388:65 *1610:A1 0.000136728
*RES
1 *1833:X *1610:A1 48.5479 
*END

*D_NET *439 0.00193269
*CONN
*I *1687:A1 I *D sky130_fd_sc_hd__mux2_1
*I *1834:X O *D sky130_fd_sc_hd__dlygate4sd3_1
*CAP
1 *1687:A1 0
2 *1834:X 0.000558946
3 *439:10 0.000558946
4 *439:10 *488:48 0.000111615
5 *1687:S *439:10 0.000134981
6 *1720:A *439:10 0
7 *50:10 *439:10 0
8 *266:59 *439:10 0
9 *303:59 *439:10 0.000568198
*RES
1 *1834:X *439:10 47.3007 
2 *439:10 *1687:A1 38 
*END

*D_NET *440 0.00112822
*CONN
*I *1672:A1 I *D sky130_fd_sc_hd__mux2_1
*I *1835:X O *D sky130_fd_sc_hd__dlygate4sd3_1
*CAP
1 *1672:A1 0
2 *1835:X 0.000250657
3 *440:6 0.000250657
4 *1672:S *440:6 5.67058e-05
5 *1883:A *440:6 0.00030974
6 *382:113 *440:6 0.000260457
*RES
1 *1835:X *440:6 30.2914 
2 *440:6 *1672:A1 23 
*END

*D_NET *441 0.000920947
*CONN
*I *1681:A1 I *D sky130_fd_sc_hd__mux2_1
*I *1836:X O *D sky130_fd_sc_hd__dlygate4sd3_1
*CAP
1 *1681:A1 0
2 *1836:X 0.000307654
3 *441:10 0.000307654
4 *441:10 *491:65 0.00014411
5 *1679:S *441:10 1.84917e-05
6 *360:168 *441:10 2.75275e-06
7 *416:6 *441:10 3.26241e-05
8 *416:21 *441:10 0.00010766
*RES
1 *1836:X *441:10 43.3857 
2 *441:10 *1681:A1 38 
*END

*D_NET *442 0.00131932
*CONN
*I *1677:A1 I *D sky130_fd_sc_hd__mux2_1
*I *1838:X O *D sky130_fd_sc_hd__dlygate4sd3_1
*CAP
1 *1677:A1 4.32077e-05
2 *1838:X 0.000370227
3 *442:10 0.000413435
4 *113:8 *442:10 8.50457e-05
5 *314:109 *442:10 3.27749e-06
6 *338:36 *442:10 0
7 *360:41 *442:10 4.67201e-05
8 *363:8 *442:10 0.000357402
*RES
1 *1838:X *442:10 43.9864 
2 *442:10 *1677:A1 38.8493 
*END

*D_NET *443 0.00126377
*CONN
*I *1685:A1 I *D sky130_fd_sc_hd__mux2_1
*I *1839:X O *D sky130_fd_sc_hd__dlygate4sd3_1
*CAP
1 *1685:A1 0
2 *1839:X 0.000590973
3 *443:6 0.000590973
4 *1839:A *443:6 8.18192e-05
*RES
1 *1839:X *443:6 30.2914 
2 *443:6 *1685:A1 23 
*END

*D_NET *444 0.00174357
*CONN
*I *1675:A1 I *D sky130_fd_sc_hd__mux2_1
*I *1840:X O *D sky130_fd_sc_hd__dlygate4sd3_1
*CAP
1 *1675:A1 0.000336203
2 *1840:X 0.000156753
3 *444:10 0.000492957
4 *1617:B1_N *444:10 6.77463e-05
5 *1675:A0 *1675:A1 0.000671577
6 *134:10 *444:10 1.83327e-05
*RES
1 *1840:X *444:10 40.8793 
2 *444:10 *1675:A1 45.2914 
*END

*D_NET *445 0.00129954
*CONN
*I *1561:A1 I *D sky130_fd_sc_hd__a22o_1
*I *1841:X O *D sky130_fd_sc_hd__dlygate4sd3_1
*CAP
1 *1561:A1 0.000327062
2 *1841:X 6.64099e-05
3 *445:8 0.000393472
4 *259:18 *1561:A1 0.000323913
5 *275:10 *445:8 4.11274e-05
6 *278:20 *1561:A1 0.000147554
*RES
1 *1841:X *445:8 39.2014 
2 *445:8 *1561:A1 44.8357 
*END

*D_NET *446 0.00190012
*CONN
*I *1632:A0 I *D sky130_fd_sc_hd__mux2_1
*I *1873:X O *D sky130_fd_sc_hd__clkbuf_1
*CAP
1 *1632:A0 0.000180919
2 *1873:X 0.00051745
3 *446:8 0.00069837
4 *1803:CLK *446:8 0.000114656
5 *129:8 *446:8 0
6 *342:10 *1632:A0 2.30292e-05
7 *342:10 *446:8 0
8 *419:29 *1632:A0 0.000365699
*RES
1 *1873:X *446:8 48.7093 
2 *446:8 *1632:A0 42.9093 
*END

*D_NET *447 0.00103528
*CONN
*I *1691:A1 I *D sky130_fd_sc_hd__mux2_1
*I *1842:X O *D sky130_fd_sc_hd__dlygate4sd3_1
*CAP
1 *1691:A1 0.000292345
2 *1842:X 6.07131e-05
3 *447:8 0.000353059
4 *1691:A1 *486:53 4.42944e-05
5 *1691:S *1691:A1 5.56279e-05
6 *1806:CLK *1691:A1 0.000141355
7 *409:14 *447:8 8.78864e-05
*RES
1 *1842:X *447:8 39.2014 
2 *447:8 *1691:A1 43.4271 
*END

*D_NET *448 0.000346786
*CONN
*I *1693:A1 I *D sky130_fd_sc_hd__mux2_1
*I *1843:X O *D sky130_fd_sc_hd__dlygate4sd3_1
*CAP
1 *1693:A1 7.88842e-05
2 *1843:X 6.81597e-05
3 *448:8 0.000147044
4 *1693:A1 *1693:A0 3.22051e-05
5 *381:12 *448:8 2.04934e-05
6 *403:8 *448:8 0
*RES
1 *1843:X *448:8 39.2014 
2 *448:8 *1693:A1 39.0979 
*END

*D_NET *449 0.00157321
*CONN
*I *1679:A1 I *D sky130_fd_sc_hd__mux2_1
*I *1844:X O *D sky130_fd_sc_hd__dlygate4sd3_1
*CAP
1 *1679:A1 0.000647307
2 *1844:X 6.14794e-05
3 *449:8 0.000708787
4 *1679:A1 *464:14 2.34195e-05
5 *1679:S *1679:A1 4.36937e-05
6 *390:149 *449:8 8.85189e-05
*RES
1 *1844:X *449:8 39.2014 
2 *449:8 *1679:A1 48.6679 
*END

*D_NET *450 0.00180934
*CONN
*I *1689:A1 I *D sky130_fd_sc_hd__mux2_1
*I *1845:X O *D sky130_fd_sc_hd__dlygate4sd3_1
*CAP
1 *1689:A1 0
2 *1845:X 0.000568406
3 *450:12 0.000568406
4 *1845:A *450:12 0.000274701
5 *49:10 *450:12 0.000234102
6 *339:20 *450:12 2.79004e-05
7 *339:22 *450:12 5.47808e-05
8 *359:22 *450:12 2.54046e-05
9 *381:122 *450:12 5.56356e-05
*RES
1 *1845:X *450:12 49.8486 
2 *450:12 *1689:A1 38 
*END

*D_NET *451 0.00146125
*CONN
*I *1600:A1 I *D sky130_fd_sc_hd__a22o_1
*I *1846:X O *D sky130_fd_sc_hd__dlygate4sd3_1
*CAP
1 *1600:A1 0.000415007
2 *1846:X 8.36561e-05
3 *451:8 0.000498663
4 *1600:A2 *1600:A1 3.26241e-05
5 *1755:A *1600:A1 0.000135953
6 *1779:CLK *1600:A1 6.17437e-06
7 *84:10 *1600:A1 5.5792e-05
8 *137:10 *1600:A1 5.58003e-05
9 *385:108 *1600:A1 0.000147656
10 *388:94 *451:8 2.99194e-05
*RES
1 *1846:X *451:8 39.5536 
2 *451:8 *1600:A1 46.7207 
*END

*D_NET *452 0.00238194
*CONN
*I *1524:A I *D sky130_fd_sc_hd__inv_2
*I *1847:X O *D sky130_fd_sc_hd__dlygate4sd3_1
*CAP
1 *1524:A 0.000516742
2 *1847:X 0.000156327
3 *452:8 0.000673069
4 *161:86 *1524:A 0.000104578
5 *380:103 *1524:A 0.000346657
6 *380:116 *1524:A 0.000281293
7 *380:116 *452:8 0.000303271
8 *398:22 *452:8 0
*RES
1 *1847:X *452:8 42.0186 
2 *452:8 *1524:A 49.1443 
*END

*D_NET *453 0.00160546
*CONN
*I *1587:B2 I *D sky130_fd_sc_hd__a2bb2o_1
*I *1849:X O *D sky130_fd_sc_hd__dlygate4sd3_1
*CAP
1 *1587:B2 0
2 *1849:X 0.000165486
3 *453:6 0.000165486
4 *306:12 *453:6 0.000786889
5 *361:42 *453:6 0.00027066
6 *423:8 *453:6 0.000216939
*RES
1 *1849:X *453:6 31.7207 
2 *453:6 *1587:B2 23 
*END

*D_NET *454 0.0010989
*CONN
*I *1669:A1 I *D sky130_fd_sc_hd__mux2_1
*I *1850:X O *D sky130_fd_sc_hd__dlygate4sd3_1
*CAP
1 *1669:A1 0
2 *1850:X 0.000249144
3 *454:6 0.000249144
4 *325:24 *454:6 0.000502136
5 *360:41 *454:6 9.84794e-05
*RES
1 *1850:X *454:6 29.815 
2 *454:6 *1669:A1 23 
*END

*D_NET *455 0.00192258
*CONN
*I *1701:A1 I *D sky130_fd_sc_hd__o211ai_1
*I *1851:X O *D sky130_fd_sc_hd__dlygate4sd3_1
*CAP
1 *1701:A1 0.000170364
2 *1851:X 0.000364415
3 *455:10 0.00053478
4 *1701:A1 *1665:A 3.71612e-05
5 *1701:A1 *1697:A 4.36552e-05
6 *1701:A1 *1855:A 5.5792e-05
7 *1701:A1 *495:38 0.000261951
8 *1701:A1 *496:19 6.63793e-06
9 *455:10 *495:38 0.000151899
10 *1701:B1 *1701:A1 5.3304e-05
11 *381:100 *455:10 6.01675e-06
12 *400:22 *455:10 2.45549e-06
13 *415:27 *455:10 0.000163823
14 *427:6 *1701:A1 7.032e-05
*RES
1 *1851:X *455:10 44.8979 
2 *455:10 *1701:A1 42.4536 
*END

*D_NET *456 0.00128215
*CONN
*I *1703:A1 I *D sky130_fd_sc_hd__o211ai_1
*I *1852:X O *D sky130_fd_sc_hd__dlygate4sd3_1
*CAP
1 *1703:A1 0
2 *1852:X 0.000191947
3 *456:6 0.000191947
4 *1703:B1 *456:6 0.000710817
5 *379:8 *456:6 0.000187436
*RES
1 *1852:X *456:6 29.3386 
2 *456:6 *1703:A1 23 
*END

*D_NET *457 0.00208055
*CONN
*I *1630:A0 I *D sky130_fd_sc_hd__mux2_1
*I *1874:X O *D sky130_fd_sc_hd__clkbuf_1
*CAP
1 *1630:A0 0.000152699
2 *1874:X 0.000241834
3 *457:8 0.000394533
4 *1630:A0 *482:14 7.44354e-05
5 *1630:A0 *482:32 1.57571e-05
6 *395:10 *457:8 0.000249664
7 *395:12 *457:8 0.000226657
8 *415:27 *457:8 0.000724968
*RES
1 *1874:X *457:8 47.6529 
2 *457:8 *1630:A0 40.0507 
*END

*D_NET *458 0.00327625
*CONN
*I *1668:A3 I *D sky130_fd_sc_hd__a32o_1
*I *1877:X O *D sky130_fd_sc_hd__clkbuf_1
*CAP
1 *1668:A3 0
2 *1877:X 6.71035e-05
3 *458:20 0.00115858
4 *458:8 0.00122569
5 *1668:B1 *458:20 3.19942e-05
6 *1668:B2 *458:20 0.000549284
7 *1770:CLK *458:20 0.00014196
8 *85:10 *458:20 1.42424e-05
9 *162:22 *458:20 6.17437e-06
10 *313:22 *458:20 3.7877e-05
11 *358:8 *458:8 4.334e-05
*RES
1 *1877:X *458:8 39.2014 
2 *458:8 *458:20 35.7143 
3 *458:20 *1668:A3 23 
*END

*D_NET *459 0.00239448
*CONN
*I *1628:A0 I *D sky130_fd_sc_hd__mux2_1
*I *1875:X O *D sky130_fd_sc_hd__clkbuf_1
*CAP
1 *1628:A0 0
2 *1875:X 0
3 *459:10 0.000936258
4 *459:6 0.000936258
5 *1628:S *459:10 0
6 *46:10 *459:10 0
7 *381:90 *459:10 0
8 *406:21 *459:10 0
9 *415:27 *459:10 0.000521968
*RES
1 *1875:X *459:6 38 
2 *459:6 *459:10 36.9779 
3 *459:10 *1628:A0 23 
*END

*D_NET *460 0.00838693
*CONN
*I *1661:A1 I *D sky130_fd_sc_hd__a31o_1
*I *1876:X O *D sky130_fd_sc_hd__clkbuf_1
*CAP
1 *1661:A1 0.000563517
2 *1876:X 0.000151598
3 *460:10 0.00254673
4 *460:8 0.00213481
5 *460:10 *464:27 0.000359124
6 *460:10 *465:12 0.000482559
7 *460:10 *483:111 5.79466e-05
8 *1433:B1 *460:10 0.000296357
9 *1473:B1 *460:10 9.53795e-05
10 *1474:A2 *460:10 2.62545e-05
11 *1521:C1 *460:10 7.20518e-05
12 *1525:A1 *460:10 0
13 *1525:B2 *460:10 6.81663e-06
14 *1525:C1 *460:10 1.28035e-05
15 *1542:A2_N *460:10 0
16 *13:9 *460:8 3.22879e-05
17 *91:8 *460:10 0
18 *158:19 *460:10 4.6749e-05
19 *159:21 *460:10 0.000109833
20 *160:31 *460:10 0.000131813
21 *162:112 *460:10 0
22 *173:143 *460:10 0
23 *200:25 *460:10 0.000221617
24 *200:44 *460:10 6.4393e-05
25 *205:8 *1661:A1 0.000395611
26 *245:12 *460:10 0.000278816
27 *246:16 *460:10 0
28 *251:16 *460:10 0
29 *271:10 *460:10 0
30 *272:10 *460:10 0.000161121
31 *303:115 *1661:A1 7.93058e-05
32 *303:127 *1661:A1 3.86731e-05
33 *380:75 *460:10 0
34 *380:103 *460:10 2.07587e-05
*RES
1 *1876:X *460:8 40.0507 
2 *460:8 *460:10 39.585 
3 *460:10 *1661:A1 46.6171 
*END

*D_NET *461 0.00441006
*CONN
*I *1832:A I *D sky130_fd_sc_hd__dlygate4sd3_1
*I *1645:B2 I *D sky130_fd_sc_hd__a2bb2o_1
*I *1623:A1 I *D sky130_fd_sc_hd__o32a_1
*I *1493:A I *D sky130_fd_sc_hd__or2_1
*I *1624:A1 I *D sky130_fd_sc_hd__o21ai_1
*I *1806:Q O *D sky130_fd_sc_hd__dfrtp_1
*CAP
1 *1832:A 0
2 *1645:B2 0.000216333
3 *1623:A1 6.15502e-05
4 *1493:A 1.55077e-05
5 *1624:A1 8.2476e-05
6 *1806:Q 0
7 *461:64 6.13591e-05
8 *461:33 0.000158032
9 *461:27 0.000437868
10 *461:14 0.000826189
11 *461:4 0.000664512
12 *1624:A1 *467:31 6.62988e-05
13 *461:33 *480:33 4.05745e-05
14 *461:64 *486:53 3.26241e-05
15 *1493:B *1493:A 5.90675e-06
16 *1623:A2 *1493:A 0
17 *1625:A3 *1624:A1 0
18 *1806:D *461:14 7.48505e-05
19 *1806:D *461:64 5.58003e-05
20 *163:49 *461:14 3.85415e-05
21 *163:51 *461:14 0.000351042
22 *163:51 *461:64 4.20429e-05
23 *173:46 *1645:B2 0.00016844
24 *173:46 *461:27 0.000165593
25 *217:16 *1493:A 1.14154e-05
26 *217:16 *1623:A1 0.000197901
27 *217:16 *461:33 4.67488e-05
28 *217:24 *461:14 3.70094e-05
29 *217:24 *461:27 0.000101708
30 *217:24 *461:33 6.17437e-06
31 *334:29 *461:14 3.31879e-05
32 *335:16 *1623:A1 0.000224654
33 *335:16 *461:14 2.71291e-05
34 *335:16 *461:27 1.22906e-05
35 *335:16 *461:33 1.24376e-05
36 *338:10 *461:64 2.22503e-05
37 *348:10 *1645:B2 0.000111609
38 *383:44 *1645:B2 0
39 *383:44 *461:14 0
40 *383:44 *461:27 0
*RES
1 *1806:Q *461:4 23 
2 *461:4 *461:14 26.0614 
3 *461:14 *1624:A1 39.595 
4 *461:14 *461:27 2.61 
5 *461:27 *461:33 16.595 
6 *461:33 *1493:A 23.4971 
7 *461:33 *1623:A1 25.5271 
8 *461:27 *1645:B2 43.075 
9 *461:4 *461:64 31.8229 
10 *461:64 *1832:A 23 
*END

*D_NET *462 0.00533515
*CONN
*I *1575:A1 I *D sky130_fd_sc_hd__o31a_1
*I *1438:A2 I *D sky130_fd_sc_hd__o41a_1
*I *1562:C_N I *D sky130_fd_sc_hd__or3b_1
*I *1515:A I *D sky130_fd_sc_hd__xor2_2
*I *1571:C_N I *D sky130_fd_sc_hd__or3b_1
*I *1816:Q O *D sky130_fd_sc_hd__dfrtp_2
*CAP
1 *1575:A1 3.80122e-05
2 *1438:A2 0
3 *1562:C_N 0
4 *1515:A 8.83308e-05
5 *1571:C_N 0
6 *1816:Q 0.00014457
7 *462:42 0.000256459
8 *462:32 0.000456941
9 *462:23 0.000496192
10 *462:19 0.000537923
11 *462:8 0.0004371
12 *1515:A *1438:A3 0.000135037
13 *462:19 *491:65 0.000117619
14 *462:23 *491:65 2.7636e-05
15 *462:32 *1438:A3 0.000518549
16 *1438:B1 *462:32 0.000307289
17 *1515:B *462:32 4.70852e-05
18 *1568:A1 *462:19 0.000159842
19 *142:10 *462:8 9.54634e-05
20 *142:10 *462:19 7.64944e-05
21 *149:70 *462:19 6.16531e-05
22 *149:70 *462:23 0.000395096
23 *159:58 *462:42 0.000114854
24 *162:151 *462:19 7.44107e-05
25 *165:8 *462:32 4.56219e-05
26 *173:125 *462:42 8.47896e-05
27 *254:82 *462:23 5.58534e-05
28 *254:99 *462:32 2.18409e-05
29 *259:47 *462:42 0
30 *278:57 *462:23 7.20415e-05
31 *289:16 *462:19 0.000134408
32 *349:41 *462:42 0.000239869
33 *381:48 *1575:A1 5.3304e-05
34 *436:8 *462:23 4.08641e-05
*RES
1 *1816:Q *462:8 26.5007 
2 *462:8 *1571:C_N 23 
3 *462:8 *462:19 22.3536 
4 *462:19 *462:23 20.4271 
5 *462:23 *1515:A 24.5743 
6 *462:23 *462:32 6.33857 
7 *462:32 *462:42 35.3857 
8 *462:42 *1562:C_N 23 
9 *462:32 *1438:A2 23 
10 *462:19 *1575:A1 38.6214 
*END

*D_NET *463 0.00742081
*CONN
*I *1438:A1 I *D sky130_fd_sc_hd__o41a_1
*I *1514:A I *D sky130_fd_sc_hd__xor2_2
*I *1569:A1 I *D sky130_fd_sc_hd__o31a_1
*I *1841:A I *D sky130_fd_sc_hd__dlygate4sd3_1
*I *1817:Q O *D sky130_fd_sc_hd__dfrtp_2
*CAP
1 *1438:A1 0
2 *1514:A 8.83283e-05
3 *1569:A1 8.39575e-05
4 *1841:A 0.000163713
5 *1817:Q 0.00010842
6 *463:55 0.000542964
7 *463:29 0.000415176
8 *463:23 0.00162792
9 *463:8 0.0011142
10 *1551:A *1841:A 2.26406e-05
11 *1569:B1 *463:29 4.80423e-06
12 *1571:B *1514:A 5.14826e-05
13 *1571:B *1841:A 0.000104578
14 *1571:B *463:23 0.00122907
15 *1571:B *463:29 0.000204151
16 *1572:A *1514:A 5.12055e-06
17 *142:10 *1514:A 2.93104e-06
18 *143:8 *1841:A 0
19 *144:8 *463:8 1.85495e-05
20 *149:104 *1569:A1 0.000160945
21 *149:104 *463:29 9.28078e-06
22 *161:98 *463:29 1.41891e-05
23 *162:126 *463:29 1.67858e-05
24 *241:12 *463:55 0
25 *275:10 *1841:A 0
26 *282:8 *463:55 6.07611e-06
27 *285:8 *463:55 0.000363755
28 *288:42 *1569:A1 5.91105e-05
29 *292:8 *1569:A1 4.53474e-05
30 *292:8 *463:29 4.85671e-05
31 *349:41 *463:55 0.000908756
*RES
1 *1817:Q *463:8 39.9057 
2 *463:8 *1841:A 41.2521 
3 *463:8 *463:23 28.485 
4 *463:23 *463:29 19.0807 
5 *463:29 *1569:A1 40.2579 
6 *463:29 *1514:A 39.595 
7 *463:23 *463:55 42.47 
8 *463:55 *1438:A1 23 
*END

*D_NET *464 0.00373771
*CONN
*I *1519:A I *D sky130_fd_sc_hd__inv_2
*I *1560:A1 I *D sky130_fd_sc_hd__o31a_1
*I *1818:Q O *D sky130_fd_sc_hd__dfrtp_1
*CAP
1 *1519:A 0
2 *1560:A1 0
3 *1818:Q 0.000101903
4 *464:27 0.00026752
5 *464:14 0.00103187
6 *464:6 0.00140129
7 *1679:A1 *464:14 2.34195e-05
8 *1818:D *464:14 0.000112756
9 *1818:RESET_B *464:14 2.8818e-05
10 *143:8 *464:14 9.41549e-05
11 *162:126 *464:14 2.05503e-05
12 *245:12 *464:27 0.000157874
13 *246:8 *464:27 2.95423e-05
14 *266:161 *464:27 9.66585e-05
15 *275:10 *464:27 0
16 *276:8 *464:27 1.22217e-05
17 *380:75 *464:27 0
18 *382:178 *464:14 0
19 *389:174 *464:14 0
20 *460:10 *464:27 0.000359124
*RES
1 *1818:Q *464:6 24.0979 
2 *464:6 *464:14 44.7486 
3 *464:14 *1560:A1 23 
4 *464:6 *464:27 36.1729 
5 *464:27 *1519:A 23 
*END

*D_NET *465 0.00311636
*CONN
*I *1847:A I *D sky130_fd_sc_hd__dlygate4sd3_1
*I *1518:A I *D sky130_fd_sc_hd__xor2_1
*I *1819:Q O *D sky130_fd_sc_hd__dfrtp_1
*CAP
1 *1847:A 5.87417e-05
2 *1518:A 0
3 *1819:Q 0
4 *465:12 0.00109418
5 *465:4 0.00115293
6 *1819:RESET_B *1847:A 5.79559e-05
7 *1819:RESET_B *465:12 6.16828e-05
8 *145:10 *465:12 0
9 *380:103 *465:12 3.39102e-05
10 *390:139 *465:12 6.66431e-05
11 *390:149 *465:12 0.00010776
12 *460:10 *465:12 0.000482559
*RES
1 *1819:Q *465:4 23 
2 *465:4 *465:12 48.5393 
3 *465:12 *1518:A 23 
4 *465:4 *1847:A 24.4707 
*END

*D_NET *466 0.00551309
*CONN
*I *1532:B2 I *D sky130_fd_sc_hd__a2bb2o_1
*I *1526:A1 I *D sky130_fd_sc_hd__a22oi_1
*I *1534:A1 I *D sky130_fd_sc_hd__o31a_1
*I *1535:A I *D sky130_fd_sc_hd__xor2_1
*I *1437:B2 I *D sky130_fd_sc_hd__o221ai_1
*I *1820:Q O *D sky130_fd_sc_hd__dfrtp_2
*CAP
1 *1532:B2 0
2 *1526:A1 0.000151494
3 *1534:A1 0.000211572
4 *1535:A 0.000202102
5 *1437:B2 0
6 *1820:Q 0.000411205
7 *466:57 0.000273716
8 *466:20 0.000305181
9 *466:18 0.000724314
10 *466:14 0.000688889
11 *466:10 0.000568208
12 *1526:A2 *1526:A1 2.18926e-05
13 *1526:B2 *1535:A 9.65021e-05
14 *1534:A2 *1534:A1 3.74519e-05
15 *146:10 *466:57 0
16 *149:153 *1535:A 0.000185221
17 *153:123 *1526:A1 1.47563e-05
18 *153:123 *466:57 2.96051e-05
19 *153:138 *466:10 5.27678e-05
20 *153:138 *466:57 4.7638e-05
21 *161:86 *1534:A1 0.000226069
22 *161:86 *466:20 0.000165286
23 *162:89 *466:10 0.000135616
24 *252:25 *1535:A 1.12863e-05
25 *253:12 *1526:A1 0
26 *258:22 *1526:A1 0.000113153
27 *259:83 *1534:A1 4.02943e-05
28 *261:10 *1535:A 3.39646e-05
29 *266:155 *1534:A1 7.11824e-06
30 *266:155 *1535:A 0
31 *278:111 *466:14 0.000228233
32 *278:111 *466:18 0.000529551
33 *398:22 *1526:A1 0
*RES
1 *1820:Q *466:10 44.4421 
2 *466:10 *466:14 17.5271 
3 *466:14 *466:18 20.8621 
4 *466:18 *466:20 2.25786 
5 *466:20 *1437:B2 38 
6 *466:20 *1535:A 42.3293 
7 *466:18 *1534:A1 42.4329 
8 *466:14 *466:57 17.2579 
9 *466:57 *1526:A1 41.0243 
10 *466:57 *1532:B2 38 
*END

*D_NET *467 0.00204359
*CONN
*I *1488:A I *D sky130_fd_sc_hd__inv_2
*I *1625:A1 I *D sky130_fd_sc_hd__a32o_1
*I *1827:A I *D sky130_fd_sc_hd__dlygate4sd3_1
*I *1807:Q O *D sky130_fd_sc_hd__dfrtp_1
*CAP
1 *1488:A 8.11938e-05
2 *1625:A1 0
3 *1827:A 0
4 *1807:Q 0
5 *467:31 0.000463768
6 *467:12 0.000156484
7 *467:4 0.000539058
8 *1624:A1 *467:31 6.62988e-05
9 *1625:A3 *467:31 4.96291e-05
10 *1625:B1 *1488:A 2.55176e-05
11 *1807:D *467:12 8.85189e-05
12 *80:12 *467:12 0
13 *133:16 *467:12 0.000140259
14 *173:46 *467:31 6.99358e-05
15 *335:16 *467:31 5.50049e-05
16 *337:8 *1488:A 7.42621e-05
17 *337:8 *467:31 0.000191279
18 *383:44 *467:12 4.23817e-05
*RES
1 *1807:Q *467:4 23 
2 *467:4 *467:12 33.48 
3 *467:12 *1827:A 23 
4 *467:4 *467:31 9.44571 
5 *467:31 *1625:A1 23 
6 *467:31 *1488:A 25.0507 
*END

*D_NET *468 0.00587251
*CONN
*I *1486:A_N I *D sky130_fd_sc_hd__nand3b_1
*I *1612:C I *D sky130_fd_sc_hd__and3_1
*I *1620:A1 I *D sky130_fd_sc_hd__a32o_1
*I *1482:C I *D sky130_fd_sc_hd__nand3_1
*I *1857:A I *D sky130_fd_sc_hd__dlygate4sd3_1
*I *1808:Q O *D sky130_fd_sc_hd__dfrtp_1
*CAP
1 *1486:A_N 0.000209629
2 *1612:C 0
3 *1620:A1 8.35717e-05
4 *1482:C 0
5 *1857:A 0
6 *1808:Q 0
7 *468:53 0.000587221
8 *468:36 0.000937198
9 *468:21 0.000851414
10 *468:12 0.000193483
11 *468:4 0.000568863
12 *1486:C *1486:A_N 3.86731e-05
13 *1612:A *1486:A_N 7.84477e-05
14 *1612:A *468:53 6.04112e-05
15 *1618:B1 *468:36 4.16878e-06
16 *1618:B2 *468:53 9.79925e-05
17 *1620:B1 *1620:A1 8.05875e-05
18 *1620:B1 *468:53 4.21921e-05
19 *1754:A *468:12 0.000102971
20 *1808:RESET_B *468:21 0.00015153
21 *81:8 *468:12 0
22 *148:45 *468:53 9.66668e-05
23 *153:27 *468:53 0.000137754
24 *207:33 *468:36 0.000127283
25 *209:26 *468:36 0.000109803
26 *213:8 *1486:A_N 0.000215073
27 *213:8 *468:53 2.99898e-05
28 *213:16 *468:36 2.46399e-05
29 *226:26 *468:36 0.000217536
30 *228:6 *468:36 3.7681e-05
31 *228:14 *468:36 5.82853e-05
32 *254:63 *468:36 0.000182029
33 *263:43 *468:53 0.000135616
34 *278:81 *468:12 0.000259637
35 *334:29 *1620:A1 2.1453e-05
36 *339:53 *468:53 8.48502e-06
37 *339:61 *468:53 2.17486e-05
38 *383:44 *468:12 0
39 *429:6 *468:12 0.000100477
*RES
1 *1808:Q *468:4 23 
2 *468:4 *468:12 35.1164 
3 *468:12 *1857:A 23 
4 *468:4 *468:21 5.40643 
5 *468:21 *1482:C 23 
6 *468:21 *468:36 40.3571 
7 *468:36 *1620:A1 24.5743 
8 *468:36 *468:53 37.0429 
9 *468:53 *1612:C 23 
10 *468:53 *1486:A_N 27.8471 
*END

*D_NET *469 0.0149611
*CONN
*I *1611:B1 I *D sky130_fd_sc_hd__a21oi_1
*I *1499:B I *D sky130_fd_sc_hd__nand3_1
*I *1616:A1 I *D sky130_fd_sc_hd__o211ai_1
*I *1502:B1 I *D sky130_fd_sc_hd__a21o_2
*I *1833:A I *D sky130_fd_sc_hd__dlygate4sd3_1
*I *1809:Q O *D sky130_fd_sc_hd__dfrtp_2
*CAP
1 *1611:B1 7.41021e-05
2 *1499:B 0
3 *1616:A1 0.000160919
4 *1502:B1 1.90367e-05
5 *1833:A 0
6 *1809:Q 0
7 *469:89 0.000132541
8 *469:70 0.000480681
9 *469:60 0.000511299
10 *469:47 0.00106595
11 *469:37 0.00204479
12 *469:29 0.00220704
13 *469:14 0.000574751
14 *469:4 0.00153393
15 *469:14 *1683:A0 3.53289e-05
16 *469:29 *1683:A0 3.5781e-06
17 *469:29 *470:46 0.000262029
18 *469:47 *484:10 0.000304342
19 *1457:A2 *469:29 0.000191157
20 *1506:A2 *469:37 1.21972e-05
21 *1600:A2 *469:29 1.29944e-05
22 *1611:A2 *1502:B1 3.72054e-06
23 *1611:A2 *1611:B1 2.19004e-05
24 *1611:A2 *469:60 1.89846e-05
25 *1615:B2 *1616:A1 0
26 *1616:B1 *1616:A1 5.3304e-05
27 *1616:C1 *1616:A1 7.26769e-05
28 *1809:D *469:14 0
29 *82:8 *469:14 3.673e-05
30 *135:8 *469:14 2.93335e-05
31 *148:35 *469:37 6.90595e-05
32 *148:39 *469:37 0.000272405
33 *148:100 *469:47 0.000335145
34 *149:8 *469:37 0.000533904
35 *163:61 *469:14 5.81185e-05
36 *163:78 *469:29 0.000138747
37 *173:174 *469:29 0.000214852
38 *178:33 *469:29 2.97686e-05
39 *181:38 *469:29 1.64634e-05
40 *223:18 *1502:B1 5.12055e-06
41 *223:18 *469:47 4.93812e-05
42 *223:18 *469:60 2.16844e-05
43 *223:47 *469:70 0.000109458
44 *223:47 *469:89 2.44132e-05
45 *224:10 *469:47 6.69509e-05
46 *225:8 *469:47 2.98857e-05
47 *225:14 *469:47 0.000661317
48 *226:14 *1611:B1 0
49 *229:10 *469:60 9.77405e-05
50 *229:16 *469:47 4.40271e-05
51 *233:8 *469:37 0.000499866
52 *234:6 *469:37 9.24795e-06
53 *255:43 *469:29 0.000188916
54 *263:43 *469:89 0.000294834
55 *314:25 *469:70 5.65491e-05
56 *314:25 *469:89 1.02387e-05
57 *317:18 *469:29 0
58 *319:12 *469:37 9.58714e-05
59 *322:10 *469:29 0.000293785
60 *323:12 *469:29 1.37246e-05
61 *324:8 *469:29 0
62 *325:14 *469:14 0
63 *325:14 *469:29 0.00045024
64 *326:10 *469:70 9.41704e-05
65 *326:10 *469:89 7.09083e-06
66 *331:6 *1616:A1 0.000179934
67 *408:16 *469:29 0.00012483
*RES
1 *1809:Q *469:4 23 
2 *469:4 *469:14 38.7207 
3 *469:14 *1833:A 23 
4 *469:4 *469:29 37.3093 
5 *469:29 *469:37 36.2736 
6 *469:37 *469:47 49.1193 
7 *469:47 *1502:B1 23.4971 
8 *469:47 *469:60 4.35 
9 *469:60 *469:70 35.6343 
10 *469:70 *1616:A1 26.5007 
11 *469:70 *469:89 34.785 
12 *469:89 *1499:B 23 
13 *469:60 *1611:B1 24.9471 
*END

*D_NET *470 0.00846616
*CONN
*I *1828:A I *D sky130_fd_sc_hd__dlygate4sd3_1
*I *1459:B1 I *D sky130_fd_sc_hd__o21ai_1
*I *1609:A1 I *D sky130_fd_sc_hd__a31o_1
*I *1504:B1 I *D sky130_fd_sc_hd__a31o_1
*I *1507:B I *D sky130_fd_sc_hd__nand3_2
*I *1810:Q O *D sky130_fd_sc_hd__dfrtp_2
*CAP
1 *1828:A 0
2 *1459:B1 0
3 *1609:A1 0
4 *1504:B1 0
5 *1507:B 0.000341068
6 *1810:Q 0.00019177
7 *470:46 0.000776342
8 *470:36 0.000627584
9 *470:26 0.000250598
10 *470:24 0.00103521
11 *470:12 0.00142286
12 *470:8 0.000637711
13 *470:46 *480:75 0
14 *470:46 *480:88 0
15 *1457:A1 *470:36 4.5e-05
16 *1457:A1 *470:46 7.51453e-06
17 *1457:A2 *470:36 7.55769e-05
18 *1457:A2 *470:46 6.17437e-06
19 *1508:A1 *470:24 7.47417e-05
20 *1508:A2 *470:24 4.46462e-05
21 *1508:A2 *470:26 0.000168687
22 *1508:A2 *470:36 5.50049e-05
23 *1609:B1 *470:36 5.50106e-05
24 *1772:D *470:12 3.22879e-05
25 *173:162 *1507:B 0
26 *178:33 *470:36 0.000158031
27 *181:38 *470:46 1.01436e-05
28 *183:12 *470:24 1.37232e-05
29 *183:12 *470:26 2.18506e-05
30 *183:12 *470:36 2.64616e-05
31 *183:27 *470:26 5.67058e-05
32 *185:10 *470:46 0.000133316
33 *186:6 *470:26 1.40958e-05
34 *186:25 *470:24 5.3304e-05
35 *186:25 *470:26 8.48502e-06
36 *230:44 *470:24 0
37 *233:8 *1507:B 6.01239e-05
38 *234:6 *1507:B 5.65647e-05
39 *254:16 *470:46 1.59094e-05
40 *317:18 *470:36 0.00021356
41 *319:12 *1507:B 6.86315e-06
42 *321:8 *470:12 2.02872e-05
43 *322:10 *1507:B 0
44 *322:10 *470:46 7.28526e-05
45 *325:8 *470:46 6.17437e-06
46 *339:20 *470:8 0
47 *381:116 *470:8 0.000108569
48 *381:122 *470:8 7.28526e-05
49 *385:102 *470:24 0
50 *385:108 *470:24 0
51 *388:122 *470:24 0.000410369
52 *388:139 *470:12 0.000310653
53 *388:139 *470:24 0.00037336
54 *388:152 *470:12 0.000132084
55 *469:29 *470:46 0.000262029
*RES
1 *1810:Q *470:8 42.7229 
2 *470:8 *470:12 23.7207 
3 *470:12 *470:24 49.9479 
4 *470:24 *470:26 2.05071 
5 *470:26 *470:36 35.1579 
6 *470:36 *470:46 23.5964 
7 *470:46 *1507:B 43.3443 
8 *470:46 *1504:B1 38 
9 *470:36 *1609:A1 23 
10 *470:26 *1459:B1 23 
11 *470:12 *1828:A 23 
*END

*D_NET *471 0.00599138
*CONN
*I *1846:A I *D sky130_fd_sc_hd__dlygate4sd3_1
*I *1604:A1 I *D sky130_fd_sc_hd__o221a_1
*I *1466:A1 I *D sky130_fd_sc_hd__o21ai_2
*I *1509:B I *D sky130_fd_sc_hd__nand2_1
*I *1460:A I *D sky130_fd_sc_hd__inv_2
*I *1811:Q O *D sky130_fd_sc_hd__dfrtp_2
*CAP
1 *1846:A 0
2 *1604:A1 0
3 *1466:A1 0
4 *1509:B 0
5 *1460:A 0.000107335
6 *1811:Q 0.000128029
7 *471:69 0.000525266
8 *471:45 9.81313e-05
9 *471:37 0.000187556
10 *471:31 0.000972312
11 *471:18 0.00100809
12 *471:12 0.000642523
13 *471:8 0.000227415
14 *471:12 *1683:A0 0.000120344
15 *471:18 *1683:A0 7.9566e-05
16 *1466:B1 *471:37 1.40958e-05
17 *1756:A *471:37 0
18 *84:10 *471:8 0
19 *84:10 *471:18 4.59712e-05
20 *137:10 *471:18 0
21 *184:8 *471:37 4.00259e-06
22 *184:21 *471:31 1.01436e-05
23 *184:21 *471:37 5.56279e-05
24 *184:21 *471:45 0.000223043
25 *184:21 *471:69 3.36638e-05
26 *185:30 *471:31 0
27 *187:6 *1460:A 3.22051e-05
28 *193:10 *471:69 0.00012887
29 *230:23 *471:45 5.3304e-05
30 *230:23 *471:69 0.000326983
31 *230:44 *471:69 0.000180218
32 *235:8 *471:31 7.35181e-05
33 *235:8 *471:45 0.000225265
34 *317:18 *471:18 0
35 *317:18 *471:31 0
36 *385:102 *471:69 0.000473445
37 *385:108 *471:18 0
38 *385:108 *471:31 0
39 *385:108 *471:69 1.44546e-05
40 *388:94 *471:8 0
*RES
1 *1811:Q *471:8 39.9057 
2 *471:8 *471:12 17.5271 
3 *471:12 *471:18 24.8186 
4 *471:18 *1460:A 40.0714 
5 *471:18 *471:31 6.13143 
6 *471:31 *471:37 16.595 
7 *471:37 *471:45 33.5836 
8 *471:45 *1509:B 23 
9 *471:37 *1466:A1 23 
10 *471:31 *471:69 28.485 
11 *471:69 *1604:A1 23 
12 *471:12 *1846:A 23 
*END

*D_NET *472 0.00758946
*CONN
*I *1829:A I *D sky130_fd_sc_hd__dlygate4sd3_1
*I *1599:B1 I *D sky130_fd_sc_hd__a2bb2o_1
*I *1476:B1 I *D sky130_fd_sc_hd__o21ai_2
*I *1468:B1 I *D sky130_fd_sc_hd__a31o_1
*I *1450:B2 I *D sky130_fd_sc_hd__a32oi_1
*I *1812:Q O *D sky130_fd_sc_hd__dfrtp_2
*CAP
1 *1829:A 0
2 *1599:B1 0.000308981
3 *1476:B1 9.45027e-05
4 *1468:B1 0
5 *1450:B2 0.000181941
6 *1812:Q 8.83504e-05
7 *472:54 0.000778214
8 *472:47 0.000478079
9 *472:24 0.00100312
10 *472:18 0.000996152
11 *472:12 0.000442248
12 *472:8 0.000252272
13 *1450:A3 *1450:B2 0.000103974
14 *1467:A1 *472:47 2.79636e-05
15 *1467:A2 *472:47 2.26406e-05
16 *1468:A1 *472:47 2.14441e-05
17 *1478:A2 *1450:B2 5.81185e-05
18 *1478:B2 *1450:B2 0.000141311
19 *1531:B1 *472:12 5.5792e-05
20 *1589:B1 *1476:B1 4.94227e-05
21 *1592:A2 *472:24 0.000142678
22 *1592:B1 *472:24 8.48502e-06
23 *1592:B2 *472:24 5.58003e-05
24 *1593:B *472:24 1.3523e-05
25 *1598:A1 *1599:B1 8.32511e-05
26 *163:111 *472:18 3.21806e-05
27 *163:124 *472:8 3.56377e-05
28 *176:16 *1450:B2 3.35903e-05
29 *176:16 *472:47 0
30 *193:44 *1599:B1 4.90891e-05
31 *193:61 *472:47 0
32 *194:30 *1476:B1 5.3304e-05
33 *194:40 *472:54 1.37349e-05
34 *195:10 *472:47 3.98859e-05
35 *195:31 *1599:B1 1.37246e-05
36 *195:31 *472:54 0.000139657
37 *197:12 *472:47 8.93663e-05
38 *202:10 *472:47 5.84239e-05
39 *204:8 *472:47 0.000403567
40 *255:77 *472:12 0.000189857
41 *258:10 *472:12 8.13511e-05
42 *258:10 *472:18 5.76359e-05
43 *258:16 *472:18 1.7403e-05
44 *259:94 *1599:B1 0
45 *259:94 *472:18 5.32275e-05
46 *259:94 *472:54 0.000136463
47 *263:106 *472:47 0
48 *263:114 *472:47 0
49 *263:140 *1599:B1 1.01436e-05
50 *278:121 *472:24 0.00036685
51 *308:10 *1599:B1 0.000130212
52 *310:10 *472:54 6.67197e-05
53 *312:10 *472:24 7.032e-05
54 *385:102 *1599:B1 0
55 *385:102 *472:54 0
56 *433:8 *472:8 3.88629e-05
*RES
1 *1812:Q *472:8 39.9057 
2 *472:8 *472:12 18.9564 
3 *472:12 *472:18 20.0129 
4 *472:18 *472:24 23.3893 
5 *472:24 *1450:B2 27.4536 
6 *472:24 *472:47 40.093 
7 *472:47 *1468:B1 23 
8 *472:18 *472:54 8.24429 
9 *472:54 *1476:B1 39.5743 
10 *472:54 *1599:B1 44.4007 
11 *472:12 *1829:A 23 
*END

*D_NET *473 0.0111601
*CONN
*I *1849:A I *D sky130_fd_sc_hd__dlygate4sd3_1
*I *1442:B1 I *D sky130_fd_sc_hd__a21oi_1
*I *1450:A1 I *D sky130_fd_sc_hd__a32oi_1
*I *1594:A1 I *D sky130_fd_sc_hd__o31a_1
*I *1470:C1 I *D sky130_fd_sc_hd__o211ai_4
*I *1474:B1_N I *D sky130_fd_sc_hd__o21bai_2
*I *1813:Q O *D sky130_fd_sc_hd__dfrtp_4
*CAP
1 *1849:A 0
2 *1442:B1 0
3 *1450:A1 0.000142356
4 *1594:A1 0
5 *1470:C1 0
6 *1474:B1_N 3.86654e-05
7 *1813:Q 0
8 *473:77 0.00022353
9 *473:52 0.000587714
10 *473:38 0.000835199
11 *473:32 0.000249063
12 *473:25 0.000572209
13 *473:8 0.00185215
14 *473:4 0.00160874
15 *473:8 *1586:A1 0.000442668
16 *473:8 *491:43 2.18557e-05
17 *473:8 *491:55 0.000602197
18 *473:25 *482:104 4.08664e-05
19 *473:25 *482:114 5.50049e-05
20 *473:25 *483:61 0.000187986
21 *473:52 *479:22 0.000185697
22 *473:77 *1586:A1 3.70094e-05
23 *1442:A1 *473:32 0.000186606
24 *1450:A3 *1450:A1 0.000181476
25 *1450:A3 *473:52 0.000146323
26 *1474:A2 *1474:B1_N 1.09903e-05
27 *1474:A2 *473:8 2.30292e-05
28 *1474:A2 *473:25 6.16045e-05
29 *1594:A2 *473:52 7.61229e-06
30 *1647:A2 *473:8 1.6318e-05
31 *1647:B2 *473:8 1.41129e-05
32 *70:10 *473:8 5.73288e-05
33 *123:10 *473:8 0.000141677
34 *169:10 *473:38 8.29264e-05
35 *173:83 *473:25 0.000185755
36 *176:16 *473:38 5.62672e-05
37 *193:71 *473:52 2.81928e-05
38 *197:6 *473:32 0.000270667
39 *201:6 *473:25 0.000308045
40 *254:63 *473:77 0
41 *254:82 *473:77 0
42 *256:38 *473:32 0.000180218
43 *263:43 *473:8 3.55444e-05
44 *263:47 *473:8 3.53548e-05
45 *263:57 *473:8 7.44161e-06
46 *263:57 *473:77 1.94693e-05
47 *313:12 *473:52 5.45644e-05
48 *314:10 *473:8 0.000947964
49 *383:25 *473:77 0
50 *383:31 *473:77 0
51 *383:156 *473:8 2.9938e-05
52 *383:171 *473:8 3.22879e-05
53 *385:100 *473:52 0.00010556
54 *398:22 *473:52 0.000139532
55 *400:36 *473:25 2.64616e-05
56 *400:36 *473:32 8.39276e-05
*RES
1 *1813:Q *473:4 23 
2 *473:4 *473:8 29.7043 
3 *473:8 *1474:B1_N 23.8493 
4 *473:8 *473:25 39.0936 
5 *473:25 *1470:C1 23 
6 *473:25 *473:32 4.90929 
7 *473:32 *473:38 31.9057 
8 *473:38 *473:52 42.3043 
9 *473:52 *1594:A1 23 
10 *473:38 *1450:A1 25.0507 
11 *473:32 *1442:B1 23 
12 *473:4 *473:77 33.9357 
13 *473:77 *1849:A 23 
*END

*D_NET *474 0.00962486
*CONN
*I *1438:A4 I *D sky130_fd_sc_hd__o41a_1
*I *1577:C_N I *D sky130_fd_sc_hd__or3b_1
*I *1563:A2 I *D sky130_fd_sc_hd__o21a_1
*I *1512:A I *D sky130_fd_sc_hd__xor2_2
*I *1586:A1 I *D sky130_fd_sc_hd__a22oi_2
*I *1583:A1_N I *D sky130_fd_sc_hd__o2bb2ai_1
*I *1814:Q O *D sky130_fd_sc_hd__dfrtp_4
*CAP
1 *1438:A4 0.000149239
2 *1577:C_N 0.000327307
3 *1563:A2 0
4 *1512:A 0
5 *1586:A1 0.000406434
6 *1583:A1_N 0
7 *1814:Q 0
8 *474:66 0.000849769
9 *474:57 0.000665265
10 *474:25 0.000956477
11 *474:21 0.000978819
12 *474:14 0.000362338
13 *474:4 0.000499073
14 *1586:A1 *491:61 0
15 *474:25 *1513:A 3.81478e-05
16 *474:25 *475:18 8.92841e-05
17 *1512:B *1586:A1 4.21594e-06
18 *1512:B *474:25 5.45225e-05
19 *1513:B *474:25 5.76837e-05
20 *1577:A *1577:C_N 0.000263842
21 *1586:A2 *1586:A1 0
22 *1586:B1 *1586:A1 5.3304e-05
23 *140:10 *474:14 0.000139352
24 *149:68 *474:57 0.000141869
25 *159:58 *1438:A4 0.000248342
26 *159:58 *1577:C_N 0.000296017
27 *239:21 *474:25 0.00039202
28 *240:12 *1577:C_N 9.95424e-05
29 *240:20 *1577:C_N 0.000340916
30 *254:82 *474:57 7.28526e-05
31 *263:47 *1586:A1 3.7122e-06
32 *263:57 *1586:A1 0.000147388
33 *278:57 *474:21 0.000174996
34 *278:57 *474:57 8.56254e-05
35 *279:23 *474:25 9.42599e-05
36 *286:16 *474:66 0.000109847
37 *288:10 *474:66 0.000302817
38 *298:6 *1577:C_N 0.000179473
39 *301:10 *474:25 0.000140958
40 *302:6 *474:14 0.000182832
41 *305:16 *1586:A1 0
42 *349:41 *1438:A4 7.5938e-05
43 *349:41 *1577:C_N 6.53505e-05
44 *360:162 *474:14 8.16356e-05
45 *360:162 *474:25 0
46 *383:25 *474:25 0
47 *385:26 *474:14 1.37232e-05
48 *473:8 *1586:A1 0.000442668
49 *473:77 *1586:A1 3.70094e-05
*RES
1 *1814:Q *474:4 23 
2 *474:4 *474:14 37.6643 
3 *474:14 *1583:A1_N 23 
4 *474:4 *474:21 3.48 
5 *474:21 *474:25 28.8786 
6 *474:25 *1586:A1 47.2179 
7 *474:25 *1512:A 38 
8 *474:21 *474:57 35.8829 
9 *474:57 *1563:A2 23 
10 *474:57 *474:66 19.9093 
11 *474:66 *1577:C_N 48.0879 
12 *474:66 *1438:A4 41.6664 
*END

*D_NET *475 0.00655208
*CONN
*I *1831:A I *D sky130_fd_sc_hd__dlygate4sd3_1
*I *1438:A3 I *D sky130_fd_sc_hd__o41a_1
*I *1563:A1 I *D sky130_fd_sc_hd__o21a_1
*I *1581:A1 I *D sky130_fd_sc_hd__o22ai_1
*I *1513:A I *D sky130_fd_sc_hd__xor2_2
*I *1815:Q O *D sky130_fd_sc_hd__dfrtp_4
*CAP
1 *1831:A 0.000179575
2 *1438:A3 0.000494897
3 *1563:A1 0.000123162
4 *1581:A1 4.24639e-05
5 *1513:A 0.00022972
6 *1815:Q 0
7 *475:18 0.00045434
8 *475:14 0.00070032
9 *475:8 0.00100029
10 *475:6 0.000289968
11 *1513:A *491:61 5.36496e-06
12 *1513:A *491:65 0.000200981
13 *1831:A *491:65 0
14 *475:8 *491:65 0
15 *475:14 *491:65 0
16 *475:18 *491:65 0.000404986
17 *1513:B *1513:A 9.42669e-05
18 *1515:A *1438:A3 0.000135037
19 *1563:B1 *1563:A1 0.000140259
20 *1581:B1 *1581:A1 2.64616e-05
21 *254:82 *1438:A3 0.000302823
22 *254:99 *1438:A3 0.000256593
23 *286:16 *1563:A1 0.000221992
24 *297:10 *1831:A 0
25 *301:10 *1513:A 0.000168269
26 *360:162 *1831:A 7.4878e-05
27 *360:162 *475:8 4.98585e-05
28 *360:162 *475:14 8.64542e-05
29 *381:48 *1831:A 0.00014196
30 *385:92 *1513:A 8.1181e-05
31 *462:32 *1438:A3 0.000518549
32 *474:25 *1513:A 3.81478e-05
33 *474:25 *475:18 8.92841e-05
*RES
1 *1815:Q *475:6 38 
2 *475:6 *475:8 2.25786 
3 *475:8 *475:14 22.6229 
4 *475:14 *475:18 20.4271 
5 *475:18 *1513:A 44.4421 
6 *475:18 *1581:A1 38.6214 
7 *475:14 *1563:A1 26.0036 
8 *475:8 *1438:A3 49.5793 
9 *475:6 *1831:A 42.5364 
*END

*D_NET *476 0.00822746
*CONN
*I *1642:A1 I *D sky130_fd_sc_hd__mux2_1
*I *1497:A3 I *D sky130_fd_sc_hd__o31ai_1
*I *1427:B I *D sky130_fd_sc_hd__nor2_2
*I *1489:B1 I *D sky130_fd_sc_hd__o211ai_1
*I *1490:A I *D sky130_fd_sc_hd__inv_2
*I *1644:B1 I *D sky130_fd_sc_hd__o21ai_1
*I *1798:Q O *D sky130_fd_sc_hd__dfrtp_4
*CAP
1 *1642:A1 0
2 *1497:A3 0
3 *1427:B 0
4 *1489:B1 0
5 *1490:A 0
6 *1644:B1 0
7 *1798:Q 0
8 *476:77 0.000388668
9 *476:57 0.000295783
10 *476:45 0.000351678
11 *476:38 0.00010398
12 *476:32 0.0002626
13 *476:25 0.000190906
14 *476:15 0.000586449
15 *476:8 0.000768085
16 *476:4 0.000863934
17 *476:25 *480:33 1.83327e-05
18 *476:25 *486:68 0.000157955
19 *476:32 *1497:A1 5.50106e-05
20 *476:38 *1427:A 5.01986e-05
21 *476:38 *477:23 1.14452e-05
22 *476:38 *477:32 0.000150977
23 *476:38 *478:23 0.00018974
24 *476:57 *1420:B 0
25 *476:57 *1427:A 0.000290342
26 *1644:A1 *476:8 0.000137651
27 *1644:A1 *476:15 0.000267167
28 *1644:A2 *476:8 9.58714e-05
29 *1644:A2 *476:15 0.000503449
30 *149:20 *476:15 0.000979269
31 *149:20 *476:32 0.00013223
32 *149:20 *476:45 6.17437e-06
33 *152:12 *476:57 1.32314e-05
34 *153:12 *476:15 0.000753276
35 *153:12 *476:32 0.000125213
36 *172:10 *476:57 7.28526e-05
37 *216:6 *476:25 5.56279e-05
38 *254:31 *476:32 0.00012018
39 *254:31 *476:45 8.34394e-05
40 *263:92 *476:57 3.18142e-05
41 *360:113 *476:77 8.85189e-05
42 *409:14 *476:77 2.5415e-05
*RES
1 *1798:Q *476:4 23 
2 *476:4 *476:8 9.09357 
3 *476:8 *1644:B1 23 
4 *476:8 *476:15 13.9614 
5 *476:15 *476:25 33.7286 
6 *476:25 *1490:A 23 
7 *476:15 *476:32 3.48 
8 *476:32 *476:38 32.9621 
9 *476:38 *1489:B1 23 
10 *476:32 *476:45 1.09786 
11 *476:45 *476:57 36.7321 
12 *476:57 *1427:B 23 
13 *476:45 *1497:A3 23 
14 *476:4 *476:77 35.655 
15 *476:77 *1642:A1 23 
*END

*D_NET *477 0.00615305
*CONN
*I *1640:A1 I *D sky130_fd_sc_hd__mux2_1
*I *1427:A I *D sky130_fd_sc_hd__nor2_2
*I *1497:A2 I *D sky130_fd_sc_hd__o31ai_1
*I *1489:C1 I *D sky130_fd_sc_hd__o211ai_1
*I *1491:B1_N I *D sky130_fd_sc_hd__o21bai_1
*I *1799:Q O *D sky130_fd_sc_hd__dfrtp_2
*CAP
1 *1640:A1 0.000132127
2 *1427:A 0.000269312
3 *1497:A2 3.07853e-05
4 *1489:C1 0
5 *1491:B1_N 0
6 *1799:Q 0
7 *477:32 0.000416976
8 *477:23 0.000496046
9 *477:12 0.00105958
10 *477:4 0.000812541
11 *1427:A *478:23 6.7177e-06
12 *1427:A *478:36 1.44813e-05
13 *477:12 *478:23 0
14 *477:12 *486:53 0.000110598
15 *477:12 *486:68 0.000302339
16 *477:23 *478:23 6.07107e-05
17 *1491:A2 *477:23 3.53051e-05
18 *1799:D *477:12 5.45644e-05
19 *73:8 *477:12 0.000198447
20 *125:8 *477:12 0.000154813
21 *147:8 *477:23 0
22 *149:20 *1427:A 0.000168754
23 *152:8 *1427:A 3.47781e-05
24 *152:12 *1427:A 5.3304e-05
25 *172:10 *1427:A 1.52259e-05
26 *217:51 *477:23 0.000138718
27 *218:8 *477:23 3.71369e-05
28 *254:31 *1497:A2 3.28708e-05
29 *259:135 *1640:A1 0.000195379
30 *259:135 *477:12 0.000377431
31 *263:92 *1427:A 0.000266152
32 *359:32 *477:12 0.000116709
33 *402:18 *1640:A1 5.82853e-05
34 *476:38 *1427:A 5.01986e-05
35 *476:38 *477:23 1.14452e-05
36 *476:38 *477:32 0.000150977
37 *476:57 *1427:A 0.000290342
*RES
1 *1799:Q *477:4 23 
2 *477:4 *477:12 48.0007 
3 *477:12 *1491:B1_N 23 
4 *477:12 *477:23 21.67 
5 *477:23 *1489:C1 38 
6 *477:23 *477:32 2.25786 
7 *477:32 *1497:A2 38.3832 
8 *477:32 *1427:A 45.5193 
9 *477:4 *1640:A1 26.9564 
*END

*D_NET *478 0.00989302
*CONN
*I *1481:B1 I *D sky130_fd_sc_hd__a211o_1
*I *1428:B I *D sky130_fd_sc_hd__nor2_4
*I *1483:A I *D sky130_fd_sc_hd__inv_2
*I *1480:B1 I *D sky130_fd_sc_hd__o21ai_1
*I *1497:A1 I *D sky130_fd_sc_hd__o31ai_1
*I *1638:A1 I *D sky130_fd_sc_hd__mux2_1
*I *1800:Q O *D sky130_fd_sc_hd__dfrtp_4
*CAP
1 *1481:B1 0.000290413
2 *1428:B 0.000291636
3 *1483:A 0
4 *1480:B1 5.39189e-05
5 *1497:A1 1.49804e-05
6 *1638:A1 0.000709316
7 *1800:Q 0.000331329
8 *478:57 0.000314906
9 *478:53 0.000530415
10 *478:36 0.000487794
11 *478:23 0.00110089
12 *478:8 0.00190942
13 *1481:B1 *1496:B1 5.2253e-05
14 *1638:A1 *486:53 1.81298e-05
15 *478:23 *486:68 0
16 *478:36 *486:68 0
17 *1427:A *478:23 6.7177e-06
18 *1427:A *478:36 1.44813e-05
19 *1480:A2 *1480:B1 1.24376e-05
20 *1481:A1 *1481:B1 3.04917e-05
21 *1481:C1 *1481:B1 0.000187145
22 *1484:A2 *1480:B1 5.3304e-05
23 *1484:A2 *478:53 4.2573e-05
24 *1800:D *1638:A1 0.000230195
25 *1823:A *478:23 0
26 *72:10 *478:23 6.40115e-05
27 *125:8 *478:23 0.000108713
28 *148:41 *478:53 0.000162779
29 *148:43 *1480:B1 2.64616e-05
30 *148:43 *478:53 6.17437e-06
31 *148:100 *1481:B1 0.000131541
32 *149:8 *478:53 0.000224329
33 *149:20 *1497:A1 5.50106e-05
34 *149:20 *478:36 0.000141386
35 *151:6 *1428:B 4.84155e-05
36 *151:10 *1428:B 0.00021256
37 *151:10 *478:57 5.3304e-05
38 *151:26 *1481:B1 0.00010658
39 *153:8 *478:23 2.96154e-05
40 *153:8 *478:36 6.32792e-05
41 *166:10 *478:36 8.4047e-05
42 *166:36 *478:36 3.47781e-05
43 *172:10 *1481:B1 0.000148509
44 *172:10 *478:53 0.000216392
45 *210:8 *1428:B 4.08664e-05
46 *210:8 *478:57 5.3304e-05
47 *217:51 *478:23 0.000138718
48 *224:10 *1481:B1 0.000156962
49 *224:10 *478:53 0.000214292
50 *228:29 *1481:B1 0.000288344
51 *387:29 *1638:A1 3.88133e-05
52 *413:24 *1638:A1 5.56279e-05
53 *476:32 *1497:A1 5.50106e-05
54 *476:38 *478:23 0.00018974
55 *477:12 *478:23 0
56 *477:23 *478:23 6.07107e-05
*RES
1 *1800:Q *478:8 27.4536 
2 *478:8 *1638:A1 32.1971 
3 *478:8 *478:23 31.0536 
4 *478:23 *1497:A1 38.6214 
5 *478:23 *478:36 20.075 
6 *478:36 *1480:B1 24.1186 
7 *478:36 *478:53 21.9393 
8 *478:53 *478:57 15.6214 
9 *478:57 *1483:A 23 
10 *478:57 *1428:B 29.0486 
11 *478:53 *1481:B1 47.5079 
*END

*D_NET *479 0.0150333
*CONN
*I *1636:A1 I *D sky130_fd_sc_hd__mux2_1
*I *1498:B I *D sky130_fd_sc_hd__nand2_1
*I *1496:B1 I *D sky130_fd_sc_hd__a211o_1
*I *1428:A I *D sky130_fd_sc_hd__nor2_4
*I *1801:Q O *D sky130_fd_sc_hd__dfrtp_4
*CAP
1 *1636:A1 2.14194e-05
2 *1498:B 2.63059e-05
3 *1496:B1 8.89033e-05
4 *1428:A 0.000127431
5 *1801:Q 0.000155043
6 *479:41 0.000432807
7 *479:26 0.000876827
8 *479:22 0.00170364
9 *479:16 0.00257022
10 *479:12 0.00172296
11 *479:8 0.000558207
12 *479:22 *483:36 0.000326983
13 *479:41 *1430:A_N 1.9054e-05
14 *1481:B1 *1496:B1 5.2253e-05
15 *1553:B *479:22 0.000224308
16 *1732:A *479:16 0.000427328
17 *1773:CLK *479:8 8.44562e-05
18 *74:10 *479:8 0
19 *148:100 *1496:B1 3.46476e-05
20 *148:100 *1498:B 6.11931e-05
21 *148:100 *479:41 4.49877e-05
22 *150:40 *1428:A 0.000242048
23 *150:40 *479:26 0.000403297
24 *150:102 *479:26 0.000780962
25 *151:59 *1428:A 0.000191812
26 *151:59 *479:26 0.00046806
27 *151:74 *479:26 0.000712181
28 *161:60 *479:22 0.000775003
29 *193:71 *479:22 0.000267956
30 *228:29 *1496:B1 1.24376e-05
31 *266:119 *479:22 0.000147141
32 *266:155 *479:22 0.000105073
33 *339:164 *1636:A1 5.90675e-06
34 *339:164 *479:12 4.01516e-05
35 *344:10 *479:16 3.06338e-05
36 *384:143 *479:8 0
37 *390:70 *479:12 0.000487361
38 *390:78 *479:8 1.46784e-05
39 *398:22 *479:22 0
40 *400:36 *479:22 0.000582579
41 *424:12 *479:12 4.04598e-06
42 *424:12 *479:16 1.73399e-05
43 *473:52 *479:22 0.000185697
*RES
1 *1801:Q *479:8 40.9621 
2 *479:8 *479:12 22.7679 
3 *479:12 *479:16 36.1079 
4 *479:16 *479:22 42.0736 
5 *479:22 *479:26 30.9914 
6 *479:26 *1428:A 41.3143 
7 *479:26 *479:41 19.93 
8 *479:41 *1496:B1 25.0714 
9 *479:41 *1498:B 24.1186 
10 *479:12 *1636:A1 23.4971 
*END

*D_NET *480 0.0173514
*CONN
*I *1462:A2 I *D sky130_fd_sc_hd__a21oi_1
*I *1504:A2 I *D sky130_fd_sc_hd__a31o_1
*I *1429:B I *D sky130_fd_sc_hd__nor2_2
*I *1506:B1 I *D sky130_fd_sc_hd__a211o_1
*I *1503:B1 I *D sky130_fd_sc_hd__a21oi_2
*I *1456:A1 I *D sky130_fd_sc_hd__o21ai_1
*I *1452:A I *D sky130_fd_sc_hd__inv_2
*I *1634:A1 I *D sky130_fd_sc_hd__mux2_1
*I *1802:Q O *D sky130_fd_sc_hd__dfrtp_4
*CAP
1 *1462:A2 0
2 *1504:A2 5.15868e-05
3 *1429:B 0.00027448
4 *1506:B1 0
5 *1503:B1 4.93207e-05
6 *1456:A1 0.000238237
7 *1452:A 2.4166e-05
8 *1634:A1 0
9 *1802:Q 2.30556e-05
10 *480:94 0.00066667
11 *480:88 0.000545696
12 *480:75 0.000344657
13 *480:56 0.000732163
14 *480:41 0.000718727
15 *480:33 0.00339813
16 *480:16 0.000516234
17 *480:6 0.00354337
18 *1429:B *1429:A 0.000135673
19 *1429:B *1444:A1 5.58003e-05
20 *1429:B *492:42 1.90974e-05
21 *1429:B *492:44 1.45391e-05
22 *1429:B *492:126 4.73379e-06
23 *1456:A1 *492:109 4.51431e-05
24 *480:16 *489:18 0.000222113
25 *480:33 *1420:B 0.000144494
26 *480:33 *1462:B1 8.1796e-05
27 *480:33 *1489:A1 2.4754e-05
28 *480:33 *492:68 4.28174e-05
29 *480:41 *481:47 2.26497e-05
30 *480:41 *481:59 0.000425723
31 *480:75 *492:109 2.26497e-05
32 *1440:A *1429:B 0.00012215
33 *1440:A *480:94 9.28078e-06
34 *1453:A1 *1456:A1 5.68958e-05
35 *1456:B1 *1456:A1 0.000102389
36 *1458:A2 *1452:A 5.58873e-06
37 *1461:B *480:33 0
38 *1504:A1 *1504:A2 0.000166871
39 *1504:A1 *480:94 0.000135037
40 *1504:A3 *1504:A2 0.000100069
41 *1504:A3 *480:94 0.000344767
42 *1634:S *480:16 9.84794e-05
43 *1747:A *480:16 5.50106e-05
44 *148:26 *1429:B 1.05441e-05
45 *148:26 *480:94 0.000266695
46 *148:118 *1456:A1 0.000170349
47 *148:118 *480:75 0.000185537
48 *155:26 *480:33 1.32314e-05
49 *166:71 *480:94 0.000114083
50 *166:104 *480:94 0.000159651
51 *170:14 *480:33 0.000353422
52 *170:50 *480:41 3.74271e-05
53 *170:50 *480:56 3.39061e-05
54 *170:99 *1429:B 0.000110904
55 *172:95 *480:41 1.14452e-05
56 *172:95 *480:94 0.000178517
57 *173:162 *480:75 1.14452e-05
58 *173:162 *480:88 0.000155059
59 *173:174 *1503:B1 0.000144501
60 *179:57 *1456:A1 0
61 *181:10 *1452:A 2.26497e-05
62 *181:38 *1456:A1 0
63 *181:53 *1452:A 1.05441e-05
64 *181:53 *480:75 1.13328e-05
65 *185:10 *480:75 0
66 *216:6 *480:33 0.000153531
67 *217:10 *480:33 2.38387e-06
68 *217:24 *480:33 8.06804e-06
69 *219:6 *480:33 0.000137368
70 *219:16 *480:33 0.000181125
71 *230:6 *1503:B1 5.79559e-05
72 *254:10 *480:33 9.03164e-05
73 *254:16 *480:33 0.000202035
74 *263:92 *1504:A2 2.46906e-05
75 *266:22 *480:41 1.49333e-06
76 *266:28 *480:41 0
77 *335:6 *480:33 9.00923e-05
78 *335:16 *480:33 0.000236079
79 *382:72 *480:16 0
80 *384:43 *480:33 5.56356e-05
81 *384:54 *480:33 0.00030536
82 *387:115 *480:16 6.17437e-06
83 *387:125 *480:16 0.000153898
84 *461:33 *480:33 4.05745e-05
85 *470:46 *480:75 0
86 *470:46 *480:88 0
87 *476:25 *480:33 1.83327e-05
*RES
1 *1802:Q *480:6 23.4971 
2 *480:6 *480:16 39.4457 
3 *480:16 *1634:A1 23 
4 *480:6 *480:33 48.9686 
5 *480:33 *480:41 24.4075 
6 *480:41 *1452:A 46.3211 
7 *480:41 *480:56 8.5712 
8 *480:56 *1456:A1 42.9196 
9 *480:56 *480:75 3.49036 
10 *480:75 *1503:B1 39.5743 
11 *480:75 *480:88 17.2579 
12 *480:88 *480:94 24.5286 
13 *480:94 *1506:B1 38 
14 *480:94 *1429:B 43.9036 
15 *480:88 *1504:A2 25.0714 
16 *480:33 *1462:A2 23 
*END

*D_NET *481 0.0169722
*CONN
*I *1429:A I *D sky130_fd_sc_hd__nor2_2
*I *1462:B1 I *D sky130_fd_sc_hd__a21oi_1
*I *1453:B1_N I *D sky130_fd_sc_hd__o21bai_1
*I *1455:B1 I *D sky130_fd_sc_hd__o21a_1
*I *1632:A1 I *D sky130_fd_sc_hd__mux2_1
*I *1803:Q O *D sky130_fd_sc_hd__dfrtp_4
*CAP
1 *1429:A 0.000142004
2 *1462:B1 9.45696e-05
3 *1453:B1_N 4.29399e-05
4 *1455:B1 0
5 *1632:A1 0
6 *1803:Q 0
7 *481:59 0.000298248
8 *481:47 0.000781711
9 *481:41 0.00066225
10 *481:39 0.00151556
11 *481:31 0.00365326
12 *481:14 0.000715396
13 *481:4 0.00294152
14 *1429:A *1424:A 1.00493e-05
15 *1453:B1_N *1455:A1 0.000142636
16 *481:39 *486:68 8.28059e-05
17 *481:59 *492:48 5.25014e-05
18 *1429:B *1429:A 0.000135673
19 *1455:A2 *1453:B1_N 2.46906e-05
20 *1456:B1 *1453:B1_N 0.000185368
21 *1482:B *481:31 0.000639664
22 *1485:A2 *481:39 9.25866e-07
23 *1486:B *481:39 4.6437e-05
24 *1499:C *481:31 0.000192271
25 *1789:D *481:31 3.22465e-05
26 *1789:RESET_B *481:31 3.08719e-06
27 *1803:CLK *481:14 0
28 *150:56 *481:39 0.000236659
29 *151:6 *481:39 0.000357144
30 *151:10 *481:39 0.000198101
31 *151:26 *481:39 2.64616e-05
32 *155:16 *481:41 5.0456e-05
33 *155:16 *481:47 8.52212e-05
34 *155:18 *481:47 0.000428593
35 *155:26 *1462:B1 1.40958e-05
36 *155:26 *481:47 0.000186804
37 *156:12 *481:39 5.5792e-05
38 *170:50 *481:59 0.000230019
39 *170:99 *1429:A 1.46205e-05
40 *170:99 *481:39 9.37021e-05
41 *172:95 *481:47 1.99391e-05
42 *179:26 *481:47 0.000299871
43 *181:10 *481:59 0.000118083
44 *189:10 *1462:B1 1.51028e-05
45 *189:10 *481:59 6.12496e-06
46 *208:14 *481:31 0.000306661
47 *210:8 *481:39 7.64059e-06
48 *225:26 *481:31 9.47248e-05
49 *266:28 *481:47 0
50 *266:28 *481:59 0
51 *278:81 *481:31 0.000125092
52 *303:16 *481:41 0.000127709
53 *303:16 *481:47 0.000288206
54 *303:16 *481:59 1.91026e-05
55 *331:6 *481:31 9.14387e-05
56 *339:88 *481:14 1.44546e-05
57 *342:10 *481:14 0
58 *384:12 *481:14 0
59 *385:51 *481:31 0.000395922
60 *387:169 *481:14 3.37394e-05
61 *387:169 *481:31 5.79559e-05
62 *409:8 *481:31 4.67488e-05
63 *480:33 *1462:B1 8.1796e-05
64 *480:41 *481:47 2.26497e-05
65 *480:41 *481:59 0.000425723
*RES
1 *1803:Q *481:4 23 
2 *481:4 *481:14 39.4457 
3 *481:14 *1632:A1 23 
4 *481:4 *481:31 48.5871 
5 *481:31 *481:39 49.7304 
6 *481:39 *481:41 1.90571 
7 *481:41 *481:47 11.8279 
8 *481:47 *481:59 34.2317 
9 *481:59 *1455:B1 23 
10 *481:59 *1453:B1_N 25.0507 
11 *481:47 *1462:B1 40.0507 
12 *481:41 *1429:A 40.4236 
*END

*D_NET *482 0.0172927
*CONN
*I *1630:A1 I *D sky130_fd_sc_hd__mux2_1
*I *1467:B1 I *D sky130_fd_sc_hd__a21oi_2
*I *1468:A2 I *D sky130_fd_sc_hd__a31o_1
*I *1475:B I *D sky130_fd_sc_hd__and3_1
*I *1471:A I *D sky130_fd_sc_hd__or2b_1
*I *1473:A1 I *D sky130_fd_sc_hd__o21a_2
*I *1441:A_N I *D sky130_fd_sc_hd__nand3b_1
*I *1448:B1 I *D sky130_fd_sc_hd__a21o_1
*I *1430:A_N I *D sky130_fd_sc_hd__nand4b_4
*I *1444:B1 I *D sky130_fd_sc_hd__o21ai_1
*I *1804:Q O *D sky130_fd_sc_hd__dfrtp_4
*CAP
1 *1630:A1 0
2 *1467:B1 1.85295e-05
3 *1468:A2 0
4 *1475:B 0
5 *1471:A 0
6 *1473:A1 0
7 *1441:A_N 0
8 *1448:B1 7.35988e-05
9 *1430:A_N 0.000679771
10 *1444:B1 0.000143649
11 *1804:Q 0.000204658
12 *482:135 4.8067e-05
13 *482:114 0.000263136
14 *482:104 0.000498621
15 *482:91 0.000348454
16 *482:52 0.000899377
17 *482:50 0.000404069
18 *482:48 0.000625677
19 *482:44 0.000464756
20 *482:42 0.000587412
21 *482:38 0.00179534
22 *482:32 0.00206311
23 *482:14 0.000780302
24 *482:8 0.000365875
25 *482:32 *1858:A 1.72338e-05
26 *482:32 *494:23 0.000128864
27 *482:32 *494:32 8.62783e-05
28 *482:114 *483:61 0.000346002
29 *1440:A *1430:A_N 0.000135037
30 *1440:B *1430:A_N 1.04957e-05
31 *1441:B *482:91 8.34873e-05
32 *1441:B *482:104 4.77164e-06
33 *1448:A1 *1448:B1 4.00259e-06
34 *1448:A2 *1448:B1 7.76416e-05
35 *1467:A1 *482:44 5.61952e-06
36 *1468:A1 *482:135 1.05441e-05
37 *1468:A3 *482:135 5.77158e-05
38 *1589:B1 *482:38 0.000214984
39 *1630:A0 *482:14 7.44354e-05
40 *1630:A0 *482:32 1.57571e-05
41 *1703:B1 *482:38 0.000397859
42 *154:34 *1430:A_N 5.11621e-05
43 *155:12 *1430:A_N 1.48077e-05
44 *155:64 *1430:A_N 7.56141e-06
45 *156:12 *1444:B1 1.83107e-05
46 *171:8 *1444:B1 0.000214403
47 *171:8 *482:50 0.000154138
48 *171:8 *482:52 0.000128422
49 *172:48 *482:44 6.81189e-07
50 *172:48 *482:50 0.000216721
51 *172:48 *482:91 8.79039e-05
52 *172:68 *1444:B1 9.89453e-05
53 *172:68 *482:50 0.000109223
54 *172:68 *482:52 6.352e-05
55 *175:8 *482:50 0.000140958
56 *193:61 *482:135 0
57 *193:71 *482:104 3.23373e-05
58 *201:6 *482:104 8.71791e-05
59 *202:10 *1467:B1 7.11824e-06
60 *202:10 *482:38 4.5051e-05
61 *202:10 *482:42 0.000359261
62 *202:10 *482:44 0.000182081
63 *203:10 *482:38 0.000184527
64 *205:8 *482:114 0.000179725
65 *229:16 *1448:B1 6.82663e-05
66 *266:119 *482:50 0.000292865
67 *266:119 *482:91 0.000257253
68 *266:119 *482:104 7.73662e-05
69 *303:16 *482:50 0
70 *303:16 *482:114 0.000345081
71 *303:115 *482:114 7.17698e-05
72 *339:119 *482:14 3.46255e-05
73 *339:119 *482:32 0.000466866
74 *361:10 *482:32 0.000136486
75 *361:36 *482:44 7.23571e-06
76 *361:36 *482:48 0.00023127
77 *381:110 *482:32 0.000307251
78 *381:116 *482:32 7.40095e-05
79 *388:163 *482:32 7.96055e-05
80 *395:12 *482:8 0.000408706
81 *473:25 *482:104 4.08664e-05
82 *473:25 *482:114 5.50049e-05
83 *479:41 *1430:A_N 1.9054e-05
*RES
1 *1804:Q *482:8 43.4271 
2 *482:8 *482:14 18.0243 
3 *482:14 *482:32 46.0329 
4 *482:32 *482:38 21.3771 
5 *482:38 *482:42 5.40643 
6 *482:42 *482:44 3.00357 
7 *482:44 *482:48 18.48 
8 *482:48 *482:50 7.89214 
9 *482:50 *482:52 1.90571 
10 *482:52 *1444:B1 41.8114 
11 *482:52 *1430:A_N 47.0936 
12 *482:50 *1448:B1 40.1129 
13 *482:48 *482:91 3.66643 
14 *482:91 *1441:A_N 38 
15 *482:91 *482:104 18.7286 
16 *482:104 *482:114 37.395 
17 *482:114 *1473:A1 23 
18 *482:104 *1471:A 23 
19 *482:44 *1475:B 23 
20 *482:42 *482:135 30.8493 
21 *482:135 *1468:A2 23 
22 *482:38 *1467:B1 23.4971 
23 *482:14 *1630:A1 23 
*END

*D_NET *483 0.0164695
*CONN
*I *1628:A1 I *D sky130_fd_sc_hd__mux2_1
*I *1432:C I *D sky130_fd_sc_hd__and3_2
*I *1521:A1 I *D sky130_fd_sc_hd__a311o_1
*I *1431:B1 I *D sky130_fd_sc_hd__a21oi_2
*I *1441:C I *D sky130_fd_sc_hd__nand3b_1
*I *1471:B_N I *D sky130_fd_sc_hd__or2b_1
*I *1469:A I *D sky130_fd_sc_hd__inv_2
*I *1546:A1 I *D sky130_fd_sc_hd__a31o_1
*I *1805:Q O *D sky130_fd_sc_hd__dfrtp_4
*CAP
1 *1628:A1 0
2 *1432:C 0
3 *1521:A1 1.90147e-05
4 *1431:B1 0
5 *1441:C 0.000222057
6 *1471:B_N 4.93224e-05
7 *1469:A 0.000182038
8 *1546:A1 4.43778e-05
9 *1805:Q 0.000559504
10 *483:111 0.000413333
11 *483:76 0.000271379
12 *483:61 0.000589834
13 *483:53 0.000681006
14 *483:49 0.000667529
15 *483:40 0.000117919
16 *483:36 0.000813636
17 *483:26 0.00322174
18 *483:12 0.00304115
19 *1432:A *1546:A1 9.67842e-05
20 *1432:A *483:40 5.50106e-05
21 *1432:B *1546:A1 2.25383e-05
22 *1432:B *483:40 4.56338e-05
23 *1472:B2 *1469:A 0.00015995
24 *1473:B1 *483:53 2.8133e-05
25 *1521:A2 *1521:A1 1.32314e-05
26 *1521:C1 *1521:A1 1.32314e-05
27 *1521:C1 *483:111 6.47492e-05
28 *1525:A2 *483:111 8.48502e-06
29 *1525:B1 *483:53 8.56254e-05
30 *1525:B1 *483:111 6.08751e-05
31 *1525:B2 *483:53 5.12479e-05
32 *1525:B2 *483:111 0.000153027
33 *1525:C1 *483:111 2.02872e-05
34 *1546:A3 *483:40 0
35 *1582:A *483:61 0.000100486
36 *1628:S *483:12 2.47094e-05
37 *1628:S *483:26 0.000313255
38 *1629:A *483:12 0
39 *1629:A *483:26 5.67058e-05
40 *158:19 *483:53 4.88501e-05
41 *159:8 *483:36 9.75779e-05
42 *159:8 *483:40 3.75171e-05
43 *160:8 *483:53 0.000237908
44 *161:52 *483:61 4.36552e-05
45 *161:60 *483:36 3.32648e-05
46 *163:111 *483:61 0.000271584
47 *173:83 *1469:A 0.000135143
48 *173:83 *483:61 0.000212901
49 *196:8 *1469:A 3.22879e-05
50 *199:20 *1469:A 0
51 *200:37 *1546:A1 1.86564e-05
52 *200:37 *483:53 0.000136486
53 *201:6 *1441:C 0.00013359
54 *201:6 *1471:B_N 9.67842e-05
55 *246:33 *1521:A1 5.67058e-05
56 *250:14 *483:36 3.39192e-05
57 *250:34 *483:26 0.000277955
58 *252:25 *483:36 0.000108277
59 *256:38 *483:61 8.68775e-05
60 *261:18 *483:36 1.03934e-05
61 *263:114 *483:26 8.91021e-05
62 *264:10 *483:26 5.3304e-05
63 *266:155 *483:36 4.10652e-05
64 *271:10 *483:111 1.19727e-05
65 *303:10 *483:61 5.94459e-05
66 *303:16 *1469:A 6.26211e-05
67 *303:16 *483:61 4.06572e-05
68 *358:29 *483:26 2.52981e-05
69 *390:42 *483:26 0.000497713
70 *390:53 *483:26 0.000259067
71 *398:22 *483:36 0
72 *420:10 *483:26 3.22051e-05
73 *460:10 *483:111 5.79466e-05
74 *473:25 *483:61 0.000187986
75 *479:22 *483:36 0.000326983
76 *482:114 *483:61 0.000346002
*RES
1 *1805:Q *483:12 32.2386 
2 *483:12 *483:26 39.2329 
3 *483:26 *483:36 43.6507 
4 *483:36 *483:40 2.07143 
5 *483:40 *1546:A1 24.0979 
6 *483:40 *483:49 15 
7 *483:49 *483:53 20.7793 
8 *483:53 *483:61 27.0971 
9 *483:61 *1469:A 42.3293 
10 *483:61 *483:76 15 
11 *483:76 *1471:B_N 24.0979 
12 *483:76 *1441:C 26.9979 
13 *483:53 *1431:B1 23 
14 *483:49 *483:111 35.9036 
15 *483:111 *1521:A1 38.6214 
16 *483:36 *1432:C 23 
17 *483:12 *1628:A1 23 
*END

*D_NET *484 0.00432019
*CONN
*I *1423:A I *D sky130_fd_sc_hd__buf_4
*I *1443:A I *D sky130_fd_sc_hd__inv_2
*I *1420:B I *D sky130_fd_sc_hd__and2b_1
*I *1790:Q O *D sky130_fd_sc_hd__dfrtp_1
*CAP
1 *1423:A 3.3586e-05
2 *1443:A 7.31501e-05
3 *1420:B 0.000297441
4 *1790:Q 0.000235496
5 *484:10 0.00120386
6 *484:8 0.00110235
7 *1420:B *492:68 8.16279e-05
8 *1445:A *1423:A 0.000140259
9 *148:12 *1420:B 0
10 *150:8 *1423:A 0.000140259
11 *151:59 *484:8 1.86973e-05
12 *151:59 *484:10 0.000182323
13 *151:74 *484:8 8.19946e-05
14 *172:10 *1420:B 0
15 *172:10 *484:10 0
16 *172:21 *484:8 0
17 *172:21 *484:10 0
18 *173:18 *484:8 0.000136486
19 *224:10 *484:10 0
20 *254:31 *1443:A 2.93335e-05
21 *386:20 *484:10 0.000114489
22 *469:47 *484:10 0.000304342
23 *476:57 *1420:B 0
24 *480:33 *1420:B 0.000144494
*RES
1 *1790:Q *484:8 42.7229 
2 *484:8 *484:10 16.3436 
3 *484:10 *1420:B 42.8886 
4 *484:10 *1443:A 39.4707 
5 *484:8 *1423:A 39.5743 
*END

*D_NET *485 0.00883792
*CONN
*I *1693:A0 I *D sky130_fd_sc_hd__mux2_1
*I *1658:B2 I *D sky130_fd_sc_hd__a22o_1
*I *1660:A1 I *D sky130_fd_sc_hd__a22o_1
*I *1791:Q O *D sky130_fd_sc_hd__dfrtp_1
*CAP
1 *1693:A0 0.000487909
2 *1658:B2 1.89501e-05
3 *1660:A1 0
4 *1791:Q 0.000100187
5 *485:32 0.000307352
6 *485:22 0.00058787
7 *485:16 0.00159872
8 *485:8 0.00192525
9 *1436:A *1658:B2 0.000100069
10 *1436:A *485:22 0.000619411
11 *1660:B1 *485:32 3.70435e-05
12 *1660:B2 *485:32 5.79559e-05
13 *1693:A1 *1693:A0 3.22051e-05
14 *117:6 *485:8 2.81066e-05
15 *140:10 *1693:A0 3.7122e-06
16 *153:39 *485:22 0.000160125
17 *160:35 *485:32 1.74069e-05
18 *160:39 *485:16 0.0001718
19 *161:20 *485:22 6.72393e-05
20 *163:18 *485:32 0
21 *255:92 *485:22 0.000162263
22 *279:6 *1658:B2 8.76309e-05
23 *279:6 *485:22 0.000186856
24 *279:8 *485:22 0.000572744
25 *279:31 *485:16 8.87497e-05
26 *303:127 *485:32 0.00018435
27 *357:14 *485:32 1.1308e-05
28 *383:12 *1693:A0 2.96123e-05
29 *383:12 *485:16 0.000107715
30 *383:25 *485:16 0.000144069
31 *385:26 *1693:A0 4.04025e-05
32 *385:41 *1693:A0 0.000331147
33 *391:14 *1693:A0 0.000351371
34 *391:14 *485:16 0.000218382
*RES
1 *1791:Q *485:8 39.0979 
2 *485:8 *485:16 48.8293 
3 *485:16 *485:22 25.5021 
4 *485:22 *485:32 35.8621 
5 *485:32 *1660:A1 23 
6 *485:22 *1658:B2 24.0979 
7 *485:8 *1693:A0 49.2271 
*END

*D_NET *486 0.0194147
*CONN
*I *1658:A1 I *D sky130_fd_sc_hd__a22o_1
*I *1691:A0 I *D sky130_fd_sc_hd__mux2_1
*I *1656:B2 I *D sky130_fd_sc_hd__a22o_1
*I *1792:Q O *D sky130_fd_sc_hd__dfrtp_1
*CAP
1 *1658:A1 0
2 *1691:A0 0
3 *1656:B2 6.47004e-05
4 *1792:Q 0.000157838
5 *486:68 0.00214839
6 *486:53 0.0023678
7 *486:35 0.00451619
8 *486:33 0.00155533
9 *486:18 0.00192876
10 *486:8 0.000466568
11 *1656:B2 *487:39 0
12 *486:18 *487:43 0.00015295
13 *486:18 *487:53 0.000139927
14 *486:33 *487:39 0
15 *1481:A2 *486:68 2.11111e-05
16 *1485:A2 *486:68 8.16757e-06
17 *1638:A1 *486:53 1.81298e-05
18 *1638:S *486:53 2.93431e-05
19 *1641:A *486:33 0.000176471
20 *1658:B1 *486:68 0.000201018
21 *1691:A1 *486:53 4.42944e-05
22 *1691:S *486:53 1.7679e-05
23 *1744:A *486:33 0.000354122
24 *1782:CLK *486:8 0
25 *1782:D *486:18 7.53384e-06
26 *1800:D *486:53 3.18516e-05
27 *1806:CLK *486:53 0.000111397
28 *1806:D *486:53 0.000335311
29 *1834:A *486:33 0
30 *73:8 *486:53 8.50457e-05
31 *116:8 *486:68 3.19892e-06
32 *118:10 *486:33 6.16085e-05
33 *122:10 *486:33 0.000110267
34 *150:20 *486:68 0.00083323
35 *152:29 *486:68 0.000161748
36 *153:8 *486:68 9.28945e-05
37 *166:10 *486:68 2.79004e-05
38 *166:36 *486:68 1.18474e-05
39 *211:10 *486:68 0.000163025
40 *223:10 *486:68 0.000236928
41 *223:41 *486:68 0
42 *225:26 *486:68 3.87221e-06
43 *229:16 *486:68 0
44 *238:10 *486:68 0
45 *259:180 *1656:B2 0
46 *259:180 *486:18 5.50049e-05
47 *259:180 *486:33 0
48 *263:12 *486:68 0
49 *266:28 *486:33 0
50 *277:17 *486:68 0.000187094
51 *303:47 *486:33 1.41129e-05
52 *339:26 *486:33 8.06804e-06
53 *339:104 *486:33 0
54 *345:10 *486:53 0.000189848
55 *346:8 *486:33 0.000348764
56 *355:10 *486:8 0.000186225
57 *355:10 *486:18 0.000266271
58 *366:10 *486:8 0
59 *383:137 *486:8 1.63599e-05
60 *383:156 *486:68 0.000108188
61 *384:122 *486:68 0.000621855
62 *387:29 *486:53 7.1e-05
63 *388:49 *486:33 0
64 *393:12 *486:8 9.19022e-06
65 *397:18 *486:33 0
66 *461:64 *486:53 3.26241e-05
67 *476:25 *486:68 0.000157955
68 *477:12 *486:53 0.000110598
69 *477:12 *486:68 0.000302339
70 *478:23 *486:68 0
71 *478:36 *486:68 0
72 *481:39 *486:68 8.28059e-05
*RES
1 *1792:Q *486:8 40.9621 
2 *486:8 *486:18 36.9807 
3 *486:18 *1656:B2 38.8493 
4 *486:18 *486:33 41.7214 
5 *486:33 *486:35 15 
6 *486:35 *486:53 49.8 
7 *486:53 *1691:A0 23 
8 *486:35 *486:68 46.5243 
9 *486:68 *1658:A1 38 
*END

*D_NET *487 0.0147393
*CONN
*I *1656:A1 I *D sky130_fd_sc_hd__a22o_1
*I *1689:A0 I *D sky130_fd_sc_hd__mux2_1
*I *1654:B2 I *D sky130_fd_sc_hd__a22o_1
*I *1793:Q O *D sky130_fd_sc_hd__dfrtp_1
*CAP
1 *1656:A1 0
2 *1689:A0 0
3 *1654:B2 0
4 *1793:Q 0
5 *487:59 0.00095364
6 *487:53 0.00297043
7 *487:43 0.00219087
8 *487:39 0.00106836
9 *487:14 0.00037344
10 *487:4 0.00126772
11 *1656:B1 *487:53 3.7681e-05
12 *1656:B2 *487:39 0
13 *1688:A *487:39 5.79559e-05
14 *1722:A *487:59 0.000177736
15 *1782:D *487:53 0.000156058
16 *1793:RESET_B *487:14 2.62876e-05
17 *1834:A *487:39 2.5415e-05
18 *1881:A *487:59 6.16531e-05
19 *1888:A *487:39 9.47917e-06
20 *50:10 *487:39 5.3304e-05
21 *103:10 *487:39 0.000187411
22 *259:180 *487:53 5.67058e-05
23 *266:79 *487:14 8.7705e-05
24 *266:79 *487:39 0.000141954
25 *303:63 *487:39 8.48502e-06
26 *303:73 *487:39 2.02872e-05
27 *314:65 *487:14 9.88303e-05
28 *314:73 *487:14 3.39192e-05
29 *314:73 *487:43 0.000119645
30 *314:73 *487:53 0
31 *314:86 *487:43 1.76557e-05
32 *314:86 *487:53 0.000185428
33 *354:10 *487:14 7.02388e-05
34 *359:22 *487:59 0.000584153
35 *359:32 *487:59 2.33476e-05
36 *369:10 *487:59 0.000184702
37 *372:12 *487:59 0.000139352
38 *382:82 *487:14 3.22879e-05
39 *382:113 *487:53 0.00174743
40 *382:117 *487:59 0.000222869
41 *383:78 *487:39 0.000265515
42 *383:86 *487:39 0.000129707
43 *383:99 *487:39 0.000351936
44 *388:80 *487:59 0
45 *388:94 *487:59 0
46 *388:105 *487:59 0
47 *395:24 *487:39 4.49877e-05
48 *405:10 *487:59 0.000163352
49 *412:8 *487:43 9.84851e-05
50 *486:18 *487:43 0.00015295
51 *486:18 *487:53 0.000139927
52 *486:33 *487:39 0
*RES
1 *1793:Q *487:4 23 
2 *487:4 *487:14 36.0071 
3 *487:14 *1654:B2 23 
4 *487:4 *487:39 49.6993 
5 *487:39 *487:43 5.40643 
6 *487:43 *487:53 48.5571 
7 *487:53 *487:59 36.4393 
8 *487:59 *1689:A0 23 
9 *487:43 *1656:A1 23 
*END

*D_NET *488 0.00446482
*CONN
*I *1687:A0 I *D sky130_fd_sc_hd__mux2_1
*I *1652:B2 I *D sky130_fd_sc_hd__a22o_1
*I *1654:A1 I *D sky130_fd_sc_hd__a22o_1
*I *1794:Q O *D sky130_fd_sc_hd__dfrtp_1
*CAP
1 *1687:A0 0
2 *1652:B2 0.000123393
3 *1654:A1 0.000239135
4 *1794:Q 0
5 *488:48 0.000204849
6 *488:16 0.000362528
7 *488:14 0.000438804
8 *488:4 0.000643652
9 *1652:B2 *490:20 5.58003e-05
10 *1654:A2 *1652:B2 0.000150872
11 *1654:A2 *1654:A1 0.000413084
12 *1687:S *488:48 1.43557e-05
13 *1688:A *488:48 0
14 *1777:CLK *1654:A1 0
15 *67:10 *488:48 0
16 *120:10 *488:14 1.05441e-05
17 *259:141 *1652:B2 1.0092e-05
18 *303:59 *488:14 0.000191255
19 *303:59 *488:48 0.000173487
20 *314:48 *1652:B2 4.41821e-06
21 *314:52 *1652:B2 5.58003e-05
22 *338:26 *488:14 0.000521227
23 *338:26 *488:48 0.000103532
24 *354:10 *1654:A1 9.58714e-05
25 *359:32 *488:48 4.15283e-06
26 *382:82 *1654:A1 4.06849e-05
27 *383:78 *1654:A1 0.000292524
28 *383:78 *488:14 5.3304e-05
29 *387:29 *488:14 6.07848e-05
30 *387:46 *488:14 7.329e-05
31 *387:52 *488:14 1.5769e-05
32 *439:10 *488:48 0.000111615
*RES
1 *1794:Q *488:4 23 
2 *488:4 *488:14 41.1443 
3 *488:14 *488:16 15 
4 *488:16 *1654:A1 44.8771 
5 *488:16 *1652:B2 40.8793 
6 *488:4 *488:48 35.1579 
7 *488:48 *1687:A0 23 
*END

*D_NET *489 0.0146324
*CONN
*I *1652:A1 I *D sky130_fd_sc_hd__a22o_1
*I *1650:B2 I *D sky130_fd_sc_hd__a22o_1
*I *1685:A0 I *D sky130_fd_sc_hd__mux2_1
*I *1795:Q O *D sky130_fd_sc_hd__dfrtp_1
*CAP
1 *1652:A1 0.000296795
2 *1650:B2 0
3 *1685:A0 0
4 *1795:Q 6.81706e-05
5 *489:31 0.000367894
6 *489:22 0.00136572
7 *489:18 0.00246156
8 *489:14 0.00196252
9 *489:10 0.000937788
10 *489:8 6.81706e-05
11 *1652:A1 *490:20 2.50118e-05
12 *1650:B1 *1652:A1 0.000387644
13 *1652:B1 *1652:A1 2.93658e-05
14 *1813:CLK *489:22 0
15 *101:10 *489:18 0
16 *163:61 *1652:A1 0.000474015
17 *314:52 *1652:A1 0.000249187
18 *352:10 *1652:A1 1.86239e-05
19 *352:10 *489:8 8.57485e-05
20 *352:10 *489:14 2.64616e-05
21 *352:10 *489:31 6.86773e-05
22 *374:8 *489:22 4.334e-05
23 *381:12 *489:22 0
24 *381:27 *489:18 4.40995e-05
25 *381:27 *489:22 0.00236459
26 *381:37 *489:18 0.00122343
27 *382:30 *489:22 0.00038982
28 *382:51 *489:22 0.000689944
29 *382:68 *489:18 0
30 *382:68 *489:22 0
31 *382:72 *489:18 0
32 *383:44 *489:8 0.000137744
33 *389:73 *489:22 0
34 *389:98 *489:22 0.000113739
35 *403:8 *489:22 0.000141879
36 *419:29 *489:22 0.000325198
37 *426:10 *489:22 4.31366e-05
38 *480:16 *489:18 0.000222113
*RES
1 *1795:Q *489:8 39.9057 
2 *489:8 *489:10 15 
3 *489:10 *489:14 29.9143 
4 *489:14 *489:18 26.4211 
5 *489:18 *489:22 42.9718 
6 *489:22 *1685:A0 38 
7 *489:10 *489:31 1.57429 
8 *489:31 *1650:B2 23 
9 *489:31 *1652:A1 33.2329 
*END

*D_NET *490 0.0114116
*CONN
*I *1683:A0 I *D sky130_fd_sc_hd__mux2_1
*I *1648:B2 I *D sky130_fd_sc_hd__a22o_1
*I *1650:A1 I *D sky130_fd_sc_hd__a22o_1
*I *1796:Q O *D sky130_fd_sc_hd__dfrtp_1
*CAP
1 *1683:A0 0.00197807
2 *1648:B2 0.000147712
3 *1650:A1 0
4 *1796:Q 0
5 *490:46 0.00209187
6 *490:20 0.001875
7 *490:10 0.0021848
8 *490:4 0.000275885
9 *1648:A2 *1648:B2 1.31902e-05
10 *1648:B1 *1648:B2 0.000102971
11 *1650:A2 *490:20 0.000360952
12 *1650:B1 *490:20 2.50118e-05
13 *1652:A1 *490:20 2.50118e-05
14 *1652:B1 *490:20 5.82853e-05
15 *1652:B2 *490:20 5.58003e-05
16 *1809:D *490:46 3.6608e-05
17 *163:61 *490:10 0.000221754
18 *163:61 *490:20 0.000229
19 *163:61 *490:46 9.66585e-05
20 *259:133 *1648:B2 2.97534e-05
21 *259:167 *490:20 5.82853e-05
22 *303:20 *1648:B2 3.357e-05
23 *303:20 *490:20 3.27386e-05
24 *314:52 *490:20 3.15124e-05
25 *352:10 *490:20 0.000147656
26 *353:10 *490:20 9.41704e-05
27 *369:10 *1683:A0 9.11847e-06
28 *388:18 *490:46 0.000110267
29 *388:41 *490:10 0.000221754
30 *388:41 *490:20 0.000167478
31 *388:41 *490:46 4.21921e-05
32 *388:49 *490:20 0.000104588
33 *388:65 *490:46 1.47795e-05
34 *402:18 *1648:B2 0.000179962
35 *402:18 *490:20 0.000116375
36 *469:14 *1683:A0 3.53289e-05
37 *469:29 *1683:A0 3.5781e-06
38 *471:12 *1683:A0 0.000120344
39 *471:18 *1683:A0 7.9566e-05
*RES
1 *1796:Q *490:4 23 
2 *490:4 *490:10 18.625 
3 *490:10 *490:20 47.3557 
4 *490:20 *1650:A1 23 
5 *490:10 *1648:B2 41.8529 
6 *490:4 *490:46 32.6514 
7 *490:46 *1683:A0 48.6443 
*END

*D_NET *491 0.0212718
*CONN
*I *1647:A1 I *D sky130_fd_sc_hd__a221o_1
*I *1681:A0 I *D sky130_fd_sc_hd__mux2_1
*I *1648:A1 I *D sky130_fd_sc_hd__a22o_1
*I *1797:Q O *D sky130_fd_sc_hd__dfrtp_2
*CAP
1 *1647:A1 0
2 *1681:A0 0
3 *1648:A1 0
4 *1797:Q 0.00014344
5 *491:65 0.00135546
6 *491:61 0.00180277
7 *491:55 0.0010309
8 *491:43 0.000989876
9 *491:30 0.00352691
10 *491:8 0.00407663
11 *1512:B *491:61 0.000190822
12 *1513:A *491:61 5.36496e-06
13 *1513:A *491:65 0.000200981
14 *1513:B *491:61 0.000413537
15 *1586:A1 *491:61 0
16 *1586:A2 *491:43 0
17 *1647:A2 *491:43 3.28708e-05
18 *1647:B2 *491:55 2.4878e-05
19 *1742:A *491:43 0.000364739
20 *1822:A *491:30 1.55259e-05
21 *1831:A *491:65 0
22 *3:13 *491:30 0.00213132
23 *123:10 *491:55 1.01436e-05
24 *150:20 *491:8 0.000182223
25 *150:20 *491:30 4.60157e-05
26 *162:151 *491:65 2.11417e-05
27 *163:22 *491:55 4.51403e-05
28 *254:82 *491:61 0.000323196
29 *254:82 *491:65 0.000148693
30 *263:43 *491:43 5.12055e-06
31 *263:43 *491:55 0
32 *278:57 *491:65 0.000707878
33 *289:16 *491:65 0
34 *297:10 *491:65 5.56203e-05
35 *303:16 *491:30 2.30362e-05
36 *304:8 *491:61 8.82524e-05
37 *305:16 *491:61 0.000111852
38 *314:10 *491:43 0.000238106
39 *350:20 *491:30 0.00062065
40 *359:32 *491:30 0.000267043
41 *386:20 *491:30 0.000244247
42 *386:50 *491:30 0.000344152
43 *388:8 *491:30 1.5367e-05
44 *389:16 *491:55 6.31905e-05
45 *416:21 *491:65 0
46 *436:8 *491:65 8.62876e-05
47 *441:10 *491:65 0.00014411
48 *462:19 *491:65 0.000117619
49 *462:23 *491:65 2.7636e-05
50 *473:8 *491:43 2.18557e-05
51 *473:8 *491:55 0.000602197
52 *475:8 *491:65 0
53 *475:14 *491:65 0
54 *475:18 *491:65 0.000404986
*RES
1 *1797:Q *491:8 40.61 
2 *491:8 *491:30 44.5302 
3 *491:30 *1648:A1 38 
4 *491:8 *491:43 23.265 
5 *491:43 *491:55 38.7829 
6 *491:55 *491:61 26.5068 
7 *491:61 *491:65 45.9575 
8 *491:65 *1681:A0 23 
9 *491:43 *1647:A1 23 
*END

*D_NET *492 0.015242
*CONN
*I *1424:A I *D sky130_fd_sc_hd__inv_2
*I *1458:A1 I *D sky130_fd_sc_hd__o211a_1
*I *1455:A1 I *D sky130_fd_sc_hd__o21a_1
*I *1463:A2 I *D sky130_fd_sc_hd__o21ai_1
*I *1527:B I *D sky130_fd_sc_hd__nand2_4
*I *1489:A1 I *D sky130_fd_sc_hd__o211ai_1
*I *1420:A_N I *D sky130_fd_sc_hd__and2b_1
*I *1444:A1 I *D sky130_fd_sc_hd__o21ai_1
*I *1696:B2 I *D sky130_fd_sc_hd__a22o_1
*I *1772:Q O *D sky130_fd_sc_hd__dfrtp_4
*CAP
1 *1424:A 4.80269e-05
2 *1458:A1 0
3 *1455:A1 4.84944e-05
4 *1463:A2 0
5 *1527:B 0
6 *1489:A1 0.000117281
7 *1420:A_N 0
8 *1444:A1 0.000101071
9 *1696:B2 2.35836e-05
10 *1772:Q 0.000267926
11 *492:126 0.000568349
12 *492:109 0.000444615
13 *492:68 0.0003026
14 *492:66 0.000582888
15 *492:58 0.000556263
16 *492:48 0.000328881
17 *492:44 0.000999403
18 *492:42 0.00106678
19 *492:29 0.00156755
20 *492:14 0.00205339
21 *492:10 0.000944622
22 *1420:B *492:68 8.16279e-05
23 *1429:A *1424:A 1.00493e-05
24 *1429:B *1444:A1 5.58003e-05
25 *1429:B *492:42 1.90974e-05
26 *1429:B *492:44 1.45391e-05
27 *1429:B *492:126 4.73379e-06
28 *1440:A *492:42 0
29 *1453:B1_N *1455:A1 0.000142636
30 *1454:A *492:109 1.14876e-05
31 *1454:B *492:109 3.7122e-06
32 *1455:A2 *1455:A1 5.79559e-05
33 *1456:A1 *492:109 4.51431e-05
34 *1456:B1 *1455:A1 4.04303e-05
35 *1461:A *492:44 1.61969e-05
36 *1463:B1 *1455:A1 0.000128723
37 *1463:B1 *492:58 0.000316453
38 *1464:A2 *1455:A1 6.17437e-06
39 *1464:A2 *492:58 5.27835e-05
40 *1464:B1 *492:58 6.33294e-05
41 *1464:B2 *492:58 5.67058e-05
42 *1505:A1 *492:44 7.32258e-05
43 *1696:A2 *492:14 0.000137533
44 *147:8 *492:66 0
45 *148:12 *492:66 0.000120867
46 *148:26 *492:44 0.000476443
47 *148:35 *492:126 0.000478167
48 *151:6 *1424:A 3.26241e-05
49 *166:73 *492:44 3.46344e-05
50 *170:14 *1489:A1 0.000222785
51 *170:14 *492:68 7.40939e-05
52 *170:31 *492:66 0.000271476
53 *170:50 *492:58 2.42216e-05
54 *170:50 *492:66 4.34745e-05
55 *170:99 *1444:A1 5.58003e-05
56 *170:99 *492:126 0.000111963
57 *172:68 *492:42 0.00014936
58 *172:68 *492:44 0.000111599
59 *179:14 *492:44 0.000123701
60 *179:14 *492:109 0.000142636
61 *179:40 *492:109 0.000253573
62 *181:10 *492:44 4.95487e-06
63 *181:10 *492:48 8.84525e-06
64 *181:23 *1455:A1 1.64729e-05
65 *181:38 *492:109 0
66 *188:8 *492:48 3.06653e-05
67 *216:6 *1489:A1 0.00012239
68 *228:39 *492:29 0.000155365
69 *228:43 *492:29 0.000442254
70 *228:56 *492:29 9.66585e-05
71 *230:44 *492:29 0.000118427
72 *233:8 *492:126 1.21972e-05
73 *254:16 *492:109 3.58084e-06
74 *259:125 *492:48 0
75 *266:28 *492:66 0
76 *480:33 *1489:A1 2.4754e-05
77 *480:33 *492:68 4.28174e-05
78 *480:75 *492:109 2.26497e-05
79 *481:59 *492:48 5.25014e-05
*RES
1 *1772:Q *492:10 42.6607 
2 *492:10 *492:14 25.6264 
3 *492:14 *1696:B2 23.4971 
4 *492:14 *492:29 24.505 
5 *492:29 *1444:A1 25.0507 
6 *492:29 *492:42 17.6825 
7 *492:42 *492:44 10.2018 
8 *492:44 *492:48 17.2579 
9 *492:48 *492:58 5.71714 
10 *492:58 *492:66 38.8243 
11 *492:66 *492:68 4.43286 
12 *492:68 *1420:A_N 23 
13 *492:68 *1489:A1 26.9979 
14 *492:66 *1527:B 23 
15 *492:58 *1463:A2 23 
16 *492:48 *1455:A1 25.5271 
17 *492:44 *492:109 36.235 
18 *492:109 *1458:A1 38 
19 *492:42 *492:126 37.7161 
20 *492:126 *1424:A 39.1186 
*END

*D_NET *493 0.00212084
*CONN
*I *1663:A I *D sky130_fd_sc_hd__nand2_4
*I *1529:A I *D sky130_fd_sc_hd__inv_2
*I *1435:A I *D sky130_fd_sc_hd__clkbuf_4
*I *1771:Q O *D sky130_fd_sc_hd__dfrtp_2
*CAP
1 *1663:A 3.55636e-05
2 *1529:A 0
3 *1435:A 5.0074e-05
4 *1771:Q 4.63418e-05
5 *493:27 0.000142884
6 *493:14 0.000551954
7 *493:12 0.000418042
8 *493:8 6.98241e-05
9 *1663:B *1663:A 0
10 *1663:B *493:14 4.9662e-05
11 *162:8 *1435:A 3.71369e-05
12 *163:124 *493:8 4.334e-05
13 *258:16 *1435:A 0.000140259
14 *258:16 *493:14 9.67842e-05
15 *258:16 *493:27 0.000131017
16 *259:94 *493:27 8.05181e-05
17 *381:73 *493:14 1.41077e-05
18 *420:16 *1663:A 5.50106e-05
19 *420:16 *493:14 6.9805e-05
20 *424:12 *493:8 8.85189e-05
*RES
1 *1771:Q *493:8 39.2014 
2 *493:8 *493:12 15.4971 
3 *493:12 *493:14 6.33857 
4 *493:14 *1435:A 24.5743 
5 *493:14 *493:27 33.6664 
6 *493:27 *1529:A 23 
7 *493:12 *1663:A 24.1186 
*END

*D_NET *494 0.0040545
*CONN
*I *1662:D_N I *D sky130_fd_sc_hd__nor4b_1
*I *1665:D_N I *D sky130_fd_sc_hd__or4b_2
*I *1697:C I *D sky130_fd_sc_hd__or4_1
*I *1700:A I *D sky130_fd_sc_hd__or2_1
*I *1852:A I *D sky130_fd_sc_hd__dlygate4sd3_1
*I *1858:A I *D sky130_fd_sc_hd__dlygate4sd3_1
*I *1767:Q O *D sky130_fd_sc_hd__dfrtp_1
*CAP
1 *1662:D_N 0.000294851
2 *1665:D_N 4.01185e-05
3 *1697:C 0.000119946
4 *1700:A 4.80306e-05
5 *1852:A 0
6 *1858:A 0.000234973
7 *1767:Q 4.88151e-05
8 *494:47 0.000181237
9 *494:43 0.000519675
10 *494:32 0.000394391
11 *494:23 0.000232404
12 *494:8 0.000373484
13 *1662:D_N *495:38 0
14 *1665:D_N *1697:A 5.90389e-05
15 *1697:C *1697:A 8.37753e-05
16 *1700:B *1700:A 5.50106e-05
17 *1767:CLK *494:8 2.93845e-05
18 *40:10 *1858:A 4.89774e-05
19 *256:68 *1697:C 5.55743e-06
20 *256:72 *1662:D_N 0
21 *256:72 *494:43 0
22 *339:10 *494:23 2.75733e-06
23 *339:10 *494:32 4.58715e-05
24 *339:10 *494:43 1.43921e-05
25 *339:16 *1858:A 0
26 *339:16 *494:23 3.34818e-06
27 *339:139 *1700:A 7.43941e-05
28 *361:10 *1662:D_N 6.07611e-06
29 *361:10 *494:32 5.62433e-05
30 *361:10 *494:43 0.000192691
31 *361:22 *494:23 4.36547e-05
32 *375:10 *1662:D_N 0.000127171
33 *377:18 *1858:A 0.000144494
34 *388:163 *1858:A 0.000188477
35 *400:22 *1700:A 7.13022e-05
36 *430:8 *1858:A 8.15864e-05
37 *482:32 *1858:A 1.72338e-05
38 *482:32 *494:23 0.000128864
39 *482:32 *494:32 8.62783e-05
*RES
1 *1767:Q *494:8 38.6214 
2 *494:8 *1858:A 43.8621 
3 *494:8 *494:23 1.90571 
4 *494:23 *1852:A 38 
5 *494:23 *494:32 2.96214 
6 *494:32 *1700:A 39.5743 
7 *494:32 *494:43 5.075 
8 *494:43 *494:47 15.4971 
9 *494:47 *1697:C 25.5479 
10 *494:47 *1665:D_N 24.1186 
11 *494:43 *1662:D_N 42.4329 
*END

*D_NET *495 0.00489866
*CONN
*I *1662:C I *D sky130_fd_sc_hd__nor4b_1
*I *1697:B I *D sky130_fd_sc_hd__or4_1
*I *1665:C I *D sky130_fd_sc_hd__or4b_2
*I *1851:A I *D sky130_fd_sc_hd__dlygate4sd3_1
*I *1856:A I *D sky130_fd_sc_hd__dlygate4sd3_1
*I *1768:Q O *D sky130_fd_sc_hd__dfrtp_1
*CAP
1 *1662:C 0
2 *1697:B 0
3 *1665:C 0
4 *1851:A 0
5 *1856:A 2.95294e-05
6 *1768:Q 0.000291123
7 *495:69 0.000144007
8 *495:61 0.000713928
9 *495:38 0.0010418
10 *495:21 0.000583696
11 *495:10 0.000432467
12 *495:38 *1665:A 6.06004e-05
13 *495:38 *1697:A 1.22822e-05
14 *495:61 *1662:A 0.000109001
15 *495:61 *1662:B 9.80703e-06
16 *495:61 *1665:A 7.44661e-05
17 *495:61 *497:8 1.0852e-05
18 *1531:B1 *495:61 1.1258e-05
19 *1662:D_N *495:38 0
20 *1698:A2 *495:69 5.75756e-06
21 *1701:A1 *495:38 0.000261951
22 *41:8 *495:10 4.83778e-05
23 *41:8 *495:21 5.08899e-05
24 *257:10 *495:69 8.08204e-05
25 *377:38 *495:38 1.16814e-05
26 *378:12 *495:61 4.96811e-06
27 *381:100 *495:21 1.01436e-05
28 *381:100 *495:38 0.000373351
29 *384:153 *495:21 0
30 *390:78 *495:61 0.000137368
31 *400:10 *495:10 6.79006e-05
32 *400:10 *495:21 0.000107651
33 *400:10 *495:38 6.07611e-06
34 *415:27 *495:38 0
35 *428:6 *1856:A 5.50049e-05
36 *455:10 *495:38 0.000151899
*RES
1 *1768:Q *495:10 42.4329 
2 *495:10 *1856:A 38.6214 
3 *495:10 *495:21 2.96214 
4 *495:21 *1851:A 38 
5 *495:21 *495:38 39.8807 
6 *495:38 *1665:C 38 
7 *495:38 *495:61 25.1293 
8 *495:61 *495:69 32.8793 
9 *495:69 *1697:B 23 
10 *495:61 *1662:C 23 
*END

*D_NET *496 0.00664207
*CONN
*I *1855:A I *D sky130_fd_sc_hd__dlygate4sd3_1
*I *1697:A I *D sky130_fd_sc_hd__or4_1
*I *1665:B I *D sky130_fd_sc_hd__or4b_2
*I *1662:B I *D sky130_fd_sc_hd__nor4b_1
*I *1769:Q O *D sky130_fd_sc_hd__dfrtp_1
*CAP
1 *1855:A 0.000235581
2 *1697:A 0.000294059
3 *1665:B 0.000213083
4 *1662:B 0.000995525
5 *1769:Q 0
6 *496:19 0.000945169
7 *496:17 0.000863984
8 *496:4 0.0011859
9 *1662:B *1662:A 0.000292978
10 *1697:A *1665:A 7.74023e-05
11 *1665:D_N *1697:A 5.90389e-05
12 *1697:C *1697:A 8.37753e-05
13 *1701:A1 *1697:A 4.36552e-05
14 *1701:A1 *1855:A 5.5792e-05
15 *1701:A1 *496:19 6.63793e-06
16 *1701:B1 *1697:A 5.3304e-05
17 *1769:D *1662:B 9.98069e-06
18 *1874:A *1855:A 0
19 *256:68 *1697:A 7.97439e-06
20 *361:10 *1697:A 1.79384e-05
21 *375:10 *1697:A 5.27117e-05
22 *378:12 *1665:B 0.000225412
23 *378:12 *1697:A 0.000404469
24 *427:6 *1855:A 0.000275403
25 *427:6 *496:19 0.000220206
26 *495:38 *1697:A 1.22822e-05
27 *495:61 *1662:B 9.80703e-06
*RES
1 *1769:Q *496:4 23 
2 *496:4 *1662:B 35.905 
3 *496:4 *496:17 3.25214 
4 *496:17 *496:19 6.815 
5 *496:19 *1665:B 26.0036 
6 *496:19 *1697:A 31.6379 
7 *496:17 *1855:A 29.1107 
*END

*D_NET *497 0.00309046
*CONN
*I *1837:A I *D sky130_fd_sc_hd__dlygate4sd3_1
*I *1665:A I *D sky130_fd_sc_hd__or4b_2
*I *1662:A I *D sky130_fd_sc_hd__nor4b_1
*I *1770:Q O *D sky130_fd_sc_hd__dfrtp_1
*CAP
1 *1837:A 3.80122e-05
2 *1665:A 0.000253782
3 *1662:A 0.000238231
4 *1770:Q 0
5 *497:8 0.000707089
6 *497:4 0.000253088
7 *1662:B *1662:A 0.000292978
8 *1697:A *1665:A 7.74023e-05
9 *1701:A1 *1665:A 3.71612e-05
10 *1769:D *1662:A 2.64616e-05
11 *96:10 *497:8 8.57485e-05
12 *339:154 *1665:A 0.000173443
13 *339:154 *497:8 0.000450086
14 *377:38 *1665:A 1.13812e-05
15 *381:90 *1837:A 5.3304e-05
16 *390:78 *1662:A 0.000137368
17 *390:78 *497:8 0
18 *495:38 *1665:A 6.06004e-05
19 *495:61 *1662:A 0.000109001
20 *495:61 *1665:A 7.44661e-05
21 *495:61 *497:8 1.0852e-05
*RES
1 *1770:Q *497:4 23 
2 *497:4 *497:8 20.9554 
3 *497:8 *1662:A 44.9911 
4 *497:8 *1665:A 43.9761 
5 *497:4 *1837:A 23.6214 
*END
