*SPEF "ieee 1481-1999"
*DESIGN "booth8_chip"
*DATE "11:11:11 Fri 11 11, 1111"
*VENDOR "OpenRCX"
*PROGRAM "Parallel Extraction"
*VERSION "1.0"
*DESIGN_FLOW "NAME_SCOPE LOCAL" "PIN_CAP NONE"
*DIVIDER /
*DELIMITER :
*BUS_DELIMITER []
*T_UNIT 1 NS
*C_UNIT 1 PF
*R_UNIT 1 OHM
*L_UNIT 1 HENRY

*NAME_MAP
*3 clk
*4 done
*5 multiplicand[0]
*6 multiplicand[1]
*7 multiplicand[2]
*8 multiplicand[3]
*9 multiplicand[4]
*10 multiplicand[5]
*11 multiplicand[6]
*12 multiplicand[7]
*13 multiplier[0]
*14 multiplier[1]
*15 multiplier[2]
*16 multiplier[3]
*17 multiplier[4]
*18 multiplier[5]
*19 multiplier[6]
*20 multiplier[7]
*21 product[0]
*22 product[10]
*23 product[11]
*24 product[12]
*25 product[13]
*26 product[14]
*27 product[15]
*28 product[1]
*29 product[2]
*30 product[3]
*31 product[4]
*32 product[5]
*33 product[6]
*34 product[7]
*35 product[8]
*36 product[9]
*37 rst
*38 start
*39 _000_
*40 _001_
*41 _002_
*42 _003_
*43 _004_
*44 _005_
*45 _006_
*46 _007_
*47 _008_
*48 _009_
*49 _010_
*50 _011_
*51 _012_
*52 _013_
*53 _014_
*54 _015_
*55 _016_
*56 _017_
*57 _018_
*58 _019_
*59 _020_
*60 _021_
*61 _022_
*62 _023_
*63 _024_
*64 _025_
*65 _026_
*66 _027_
*67 _028_
*68 _029_
*69 _030_
*70 _031_
*71 _032_
*72 _033_
*73 _034_
*74 _035_
*75 _036_
*76 _037_
*77 _038_
*78 _039_
*79 _040_
*80 _041_
*81 _042_
*82 _043_
*83 _044_
*84 _045_
*85 _046_
*86 _047_
*87 _048_
*88 _049_
*89 _050_
*90 _051_
*91 _052_
*92 _053_
*93 _054_
*94 _055_
*95 _056_
*96 _057_
*97 _058_
*98 _059_
*99 _060_
*100 _061_
*101 _062_
*102 _063_
*103 _064_
*104 _065_
*105 _066_
*106 _067_
*107 _068_
*108 _069_
*109 _070_
*110 _071_
*111 _072_
*112 _073_
*113 _074_
*114 _075_
*115 _076_
*116 _077_
*117 _078_
*118 _079_
*119 _080_
*120 _081_
*121 _082_
*122 _083_
*123 _084_
*124 _085_
*125 _086_
*126 _087_
*127 _088_
*128 _089_
*129 _090_
*130 _091_
*131 _092_
*132 _093_
*133 _094_
*134 _095_
*135 _096_
*136 _097_
*137 _098_
*138 _099_
*139 _100_
*140 _101_
*141 _102_
*142 _103_
*143 _104_
*144 _105_
*145 _106_
*146 _107_
*147 _108_
*148 _109_
*149 _110_
*150 _111_
*151 _112_
*152 _113_
*153 _114_
*154 _115_
*155 _116_
*156 _117_
*157 _118_
*158 _119_
*159 _120_
*160 _121_
*161 _122_
*162 _123_
*163 _124_
*164 _125_
*165 _126_
*166 _127_
*167 _128_
*168 _129_
*169 _130_
*170 _131_
*171 _132_
*172 _133_
*173 _134_
*174 _135_
*175 _136_
*176 _137_
*177 _138_
*178 _139_
*179 _140_
*180 _141_
*181 _142_
*182 _143_
*183 _144_
*184 _145_
*185 _146_
*186 _147_
*187 _148_
*188 _149_
*189 _150_
*190 _151_
*191 _152_
*192 _153_
*193 _154_
*194 _155_
*195 _156_
*196 _157_
*197 _158_
*198 _159_
*199 _160_
*200 _161_
*201 _162_
*202 _163_
*203 _164_
*204 _165_
*205 _166_
*206 _167_
*207 _168_
*208 _169_
*209 _170_
*210 _171_
*211 _172_
*212 _173_
*213 _174_
*214 _175_
*215 _176_
*216 _177_
*217 _178_
*218 _179_
*219 _180_
*220 _181_
*221 _182_
*222 _183_
*223 _184_
*224 _185_
*225 _186_
*226 _187_
*227 _188_
*228 _189_
*229 _190_
*230 _191_
*231 _192_
*232 _193_
*233 _194_
*234 _195_
*235 _196_
*236 _197_
*237 _198_
*238 _199_
*239 _200_
*240 _201_
*241 _202_
*242 _203_
*243 _204_
*244 _205_
*245 _206_
*246 _207_
*247 _208_
*248 _209_
*249 _210_
*250 _211_
*251 _212_
*252 _213_
*253 _214_
*254 _215_
*255 _216_
*256 _217_
*257 _218_
*258 _219_
*259 _220_
*260 _221_
*261 _222_
*262 _223_
*263 _224_
*264 _225_
*265 _226_
*266 _227_
*267 _228_
*268 _229_
*269 _230_
*270 _231_
*271 _232_
*272 _233_
*273 _234_
*274 _235_
*275 _236_
*276 _237_
*277 _238_
*278 _239_
*279 _240_
*280 _241_
*281 _242_
*282 _243_
*283 _244_
*284 _245_
*285 _246_
*286 _247_
*287 _248_
*288 _249_
*289 _250_
*290 _251_
*291 _252_
*292 _253_
*293 _254_
*294 _255_
*295 _256_
*296 _257_
*297 _258_
*298 _259_
*299 _260_
*300 _261_
*301 _262_
*302 _263_
*303 _264_
*304 _265_
*305 _266_
*306 _267_
*307 _268_
*308 _269_
*309 _270_
*310 _271_
*311 _272_
*312 _273_
*313 _274_
*314 _275_
*315 _276_
*316 _277_
*317 _278_
*318 _279_
*319 _280_
*320 _281_
*321 _282_
*322 _283_
*323 _284_
*324 _285_
*325 _286_
*326 _287_
*327 _288_
*328 _289_
*329 _290_
*330 _291_
*331 _292_
*332 _293_
*333 _294_
*334 _295_
*335 _296_
*336 _297_
*337 _298_
*338 _299_
*339 _300_
*340 _301_
*341 _302_
*342 _303_
*343 _304_
*344 _305_
*345 _306_
*346 _307_
*347 _308_
*348 _309_
*349 _310_
*350 _311_
*351 _312_
*352 _313_
*353 _314_
*354 _315_
*355 _316_
*356 _317_
*357 _318_
*358 _319_
*359 _320_
*360 _321_
*361 _322_
*362 _323_
*363 _324_
*364 _325_
*365 _326_
*366 _327_
*367 _328_
*368 _329_
*369 _330_
*370 _331_
*371 _332_
*372 _333_
*373 _334_
*374 _335_
*375 _336_
*376 _337_
*377 _338_
*378 _339_
*379 _340_
*380 _341_
*381 _342_
*382 _343_
*383 _344_
*384 _345_
*385 _346_
*386 clknet_0_clk
*387 clknet_2_0__leaf_clk
*388 clknet_2_1__leaf_clk
*389 clknet_2_2__leaf_clk
*390 clknet_2_3__leaf_clk
*391 net1
*392 net10
*393 net11
*394 net12
*395 net13
*396 net14
*397 net15
*398 net16
*399 net17
*400 net18
*401 net19
*402 net2
*403 net20
*404 net21
*405 net22
*406 net23
*407 net24
*408 net25
*409 net26
*410 net27
*411 net28
*412 net29
*413 net3
*414 net30
*415 net31
*416 net32
*417 net33
*418 net34
*419 net35
*420 net36
*421 net37
*422 net38
*423 net39
*424 net4
*425 net40
*426 net41
*427 net42
*428 net43
*429 net44
*430 net45
*431 net46
*432 net47
*433 net48
*434 net49
*435 net5
*436 net50
*437 net51
*438 net52
*439 net53
*440 net54
*441 net55
*442 net56
*443 net57
*444 net58
*445 net59
*446 net6
*447 net60
*448 net61
*449 net62
*450 net63
*451 net64
*452 net65
*453 net66
*454 net67
*455 net68
*456 net69
*457 net7
*458 net70
*459 net8
*460 net9
*461 u_core\.A\[0\]
*462 u_core\.A\[10\]
*463 u_core\.A\[11\]
*464 u_core\.A\[12\]
*465 u_core\.A\[13\]
*466 u_core\.A\[14\]
*467 u_core\.A\[1\]
*468 u_core\.A\[2\]
*469 u_core\.A\[3\]
*470 u_core\.A\[4\]
*471 u_core\.A\[5\]
*472 u_core\.A\[6\]
*473 u_core\.A\[7\]
*474 u_core\.A\[8\]
*475 u_core\.A\[9\]
*476 u_core\.M\[0\]
*477 u_core\.M\[1\]
*478 u_core\.M\[2\]
*479 u_core\.M\[3\]
*480 u_core\.M\[4\]
*481 u_core\.M\[5\]
*482 u_core\.M\[6\]
*483 u_core\.M\[7\]
*484 u_core\.Q\[0\]
*485 u_core\.Q\[1\]
*486 u_core\.Q\[2\]
*487 u_core\.Q\[3\]
*488 u_core\.Q\[4\]
*489 u_core\.Q\[5\]
*490 u_core\.Q\[6\]
*491 u_core\.Q\[7\]
*492 u_core\.Q_1
*493 u_core\.busy
*494 u_core\.count\[0\]
*495 u_core\.count\[1\]
*496 u_core\.count\[2\]
*497 u_core\.count\[3\]
*498 ANTENNA_1
*499 FILLER_0_0_10
*500 FILLER_0_0_105
*501 FILLER_0_0_111
*502 FILLER_0_0_113
*503 FILLER_0_0_125
*504 FILLER_0_0_13
*505 FILLER_0_0_132
*506 FILLER_0_0_144
*507 FILLER_0_0_156
*508 FILLER_0_0_163
*509 FILLER_0_0_167
*510 FILLER_0_0_169
*511 FILLER_0_0_181
*512 FILLER_0_0_189
*513 FILLER_0_0_195
*514 FILLER_0_0_197
*515 FILLER_0_0_209
*516 FILLER_0_0_21
*517 FILLER_0_0_215
*518 FILLER_0_0_27
*519 FILLER_0_0_29
*520 FILLER_0_0_41
*521 FILLER_0_0_49
*522 FILLER_0_0_55
*523 FILLER_0_0_57
*524 FILLER_0_0_6
*525 FILLER_0_0_69
*526 FILLER_0_0_76
*527 FILLER_0_0_85
*528 FILLER_0_0_97
*529 FILLER_0_10_118
*530 FILLER_0_10_126
*531 FILLER_0_10_131
*532 FILLER_0_10_156
*533 FILLER_0_10_161
*534 FILLER_0_10_169
*535 FILLER_0_10_181
*536 FILLER_0_10_186
*537 FILLER_0_10_194
*538 FILLER_0_10_197
*539 FILLER_0_10_209
*540 FILLER_0_10_217
*541 FILLER_0_10_29
*542 FILLER_0_10_3
*543 FILLER_0_10_38
*544 FILLER_0_10_50
*545 FILLER_0_10_58
*546 FILLER_0_10_85
*547 FILLER_0_10_93
*548 FILLER_0_11_105
*549 FILLER_0_11_113
*550 FILLER_0_11_132
*551 FILLER_0_11_147
*552 FILLER_0_11_155
*553 FILLER_0_11_167
*554 FILLER_0_11_169
*555 FILLER_0_11_18
*556 FILLER_0_11_198
*557 FILLER_0_11_210
*558 FILLER_0_11_22
*559 FILLER_0_11_48
*560 FILLER_0_11_57
*561 FILLER_0_11_65
*562 FILLER_0_11_77
*563 FILLER_0_11_89
*564 FILLER_0_11_97
*565 FILLER_0_12_100
*566 FILLER_0_12_106
*567 FILLER_0_12_112
*568 FILLER_0_12_120
*569 FILLER_0_12_132
*570 FILLER_0_12_141
*571 FILLER_0_12_15
*572 FILLER_0_12_150
*573 FILLER_0_12_156
*574 FILLER_0_12_160
*575 FILLER_0_12_169
*576 FILLER_0_12_177
*577 FILLER_0_12_185
*578 FILLER_0_12_193
*579 FILLER_0_12_197
*580 FILLER_0_12_201
*581 FILLER_0_12_213
*582 FILLER_0_12_27
*583 FILLER_0_12_29
*584 FILLER_0_12_3
*585 FILLER_0_12_43
*586 FILLER_0_12_78
*587 FILLER_0_13_102
*588 FILLER_0_13_110
*589 FILLER_0_13_113
*590 FILLER_0_13_117
*591 FILLER_0_13_124
*592 FILLER_0_13_133
*593 FILLER_0_13_14
*594 FILLER_0_13_149
*595 FILLER_0_13_209
*596 FILLER_0_13_217
*597 FILLER_0_13_26
*598 FILLER_0_13_3
*599 FILLER_0_13_38
*600 FILLER_0_13_50
*601 FILLER_0_13_57
*602 FILLER_0_13_75
*603 FILLER_0_13_87
*604 FILLER_0_13_93
*605 FILLER_0_14_109
*606 FILLER_0_14_128
*607 FILLER_0_14_134
*608 FILLER_0_14_141
*609 FILLER_0_14_147
*610 FILLER_0_14_166
*611 FILLER_0_14_178
*612 FILLER_0_14_189
*613 FILLER_0_14_195
*614 FILLER_0_14_197
*615 FILLER_0_14_205
*616 FILLER_0_14_211
*617 FILLER_0_14_27
*618 FILLER_0_14_3
*619 FILLER_0_14_56
*620 FILLER_0_14_67
*621 FILLER_0_14_80
*622 FILLER_0_14_91
*623 FILLER_0_15_107
*624 FILLER_0_15_111
*625 FILLER_0_15_113
*626 FILLER_0_15_140
*627 FILLER_0_15_15
*628 FILLER_0_15_152
*629 FILLER_0_15_164
*630 FILLER_0_15_169
*631 FILLER_0_15_181
*632 FILLER_0_15_193
*633 FILLER_0_15_27
*634 FILLER_0_15_3
*635 FILLER_0_15_49
*636 FILLER_0_15_55
*637 FILLER_0_15_57
*638 FILLER_0_15_80
*639 FILLER_0_15_88
*640 FILLER_0_16_104
*641 FILLER_0_16_116
*642 FILLER_0_16_133
*643 FILLER_0_16_141
*644 FILLER_0_16_153
*645 FILLER_0_16_159
*646 FILLER_0_16_164
*647 FILLER_0_16_176
*648 FILLER_0_16_188
*649 FILLER_0_16_197
*650 FILLER_0_16_208
*651 FILLER_0_16_21
*652 FILLER_0_16_212
*653 FILLER_0_16_27
*654 FILLER_0_16_29
*655 FILLER_0_16_41
*656 FILLER_0_16_53
*657 FILLER_0_16_65
*658 FILLER_0_16_74
*659 FILLER_0_16_92
*660 FILLER_0_17_101
*661 FILLER_0_17_125
*662 FILLER_0_17_135
*663 FILLER_0_17_147
*664 FILLER_0_17_159
*665 FILLER_0_17_176
*666 FILLER_0_17_182
*667 FILLER_0_17_202
*668 FILLER_0_17_217
*669 FILLER_0_17_3
*670 FILLER_0_17_51
*671 FILLER_0_17_55
*672 FILLER_0_17_57
*673 FILLER_0_17_63
*674 FILLER_0_17_77
*675 FILLER_0_17_89
*676 FILLER_0_18_101
*677 FILLER_0_18_11
*678 FILLER_0_18_128
*679 FILLER_0_18_141
*680 FILLER_0_18_153
*681 FILLER_0_18_159
*682 FILLER_0_18_166
*683 FILLER_0_18_174
*684 FILLER_0_18_217
*685 FILLER_0_18_23
*686 FILLER_0_18_27
*687 FILLER_0_18_29
*688 FILLER_0_18_3
*689 FILLER_0_18_41
*690 FILLER_0_18_53
*691 FILLER_0_18_65
*692 FILLER_0_18_7
*693 FILLER_0_18_77
*694 FILLER_0_18_83
*695 FILLER_0_18_85
*696 FILLER_0_18_97
*697 FILLER_0_19_111
*698 FILLER_0_19_113
*699 FILLER_0_19_119
*700 FILLER_0_19_128
*701 FILLER_0_19_136
*702 FILLER_0_19_15
*703 FILLER_0_19_169
*704 FILLER_0_19_181
*705 FILLER_0_19_207
*706 FILLER_0_19_217
*707 FILLER_0_19_27
*708 FILLER_0_19_3
*709 FILLER_0_19_31
*710 FILLER_0_19_65
*711 FILLER_0_19_69
*712 FILLER_0_19_75
*713 FILLER_0_19_87
*714 FILLER_0_1_110
*715 FILLER_0_1_113
*716 FILLER_0_1_121
*717 FILLER_0_1_150
*718 FILLER_0_1_154
*719 FILLER_0_1_158
*720 FILLER_0_1_164
*721 FILLER_0_1_178
*722 FILLER_0_1_18
*723 FILLER_0_1_190
*724 FILLER_0_1_202
*725 FILLER_0_1_214
*726 FILLER_0_1_30
*727 FILLER_0_1_42
*728 FILLER_0_1_54
*729 FILLER_0_1_57
*730 FILLER_0_1_6
*731 FILLER_0_1_65
*732 FILLER_0_1_73
*733 FILLER_0_1_85
*734 FILLER_0_1_89
*735 FILLER_0_20_108
*736 FILLER_0_20_116
*737 FILLER_0_20_138
*738 FILLER_0_20_14
*739 FILLER_0_20_141
*740 FILLER_0_20_147
*741 FILLER_0_20_164
*742 FILLER_0_20_176
*743 FILLER_0_20_202
*744 FILLER_0_20_206
*745 FILLER_0_20_210
*746 FILLER_0_20_27
*747 FILLER_0_20_29
*748 FILLER_0_20_33
*749 FILLER_0_20_57
*750 FILLER_0_20_6
*751 FILLER_0_20_81
*752 FILLER_0_20_88
*753 FILLER_0_20_96
*754 FILLER_0_21_108
*755 FILLER_0_21_113
*756 FILLER_0_21_117
*757 FILLER_0_21_144
*758 FILLER_0_21_156
*759 FILLER_0_21_164
*760 FILLER_0_21_169
*761 FILLER_0_21_181
*762 FILLER_0_21_193
*763 FILLER_0_21_205
*764 FILLER_0_21_213
*765 FILLER_0_21_3
*766 FILLER_0_21_33
*767 FILLER_0_21_48
*768 FILLER_0_21_70
*769 FILLER_0_21_95
*770 FILLER_0_22_105
*771 FILLER_0_22_124
*772 FILLER_0_22_132
*773 FILLER_0_22_148
*774 FILLER_0_22_15
*775 FILLER_0_22_156
*776 FILLER_0_22_169
*777 FILLER_0_22_177
*778 FILLER_0_22_184
*779 FILLER_0_22_27
*780 FILLER_0_22_29
*781 FILLER_0_22_3
*782 FILLER_0_22_35
*783 FILLER_0_22_39
*784 FILLER_0_22_51
*785 FILLER_0_22_59
*786 FILLER_0_22_65
*787 FILLER_0_22_73
*788 FILLER_0_22_80
*789 FILLER_0_22_85
*790 FILLER_0_23_104
*791 FILLER_0_23_113
*792 FILLER_0_23_129
*793 FILLER_0_23_141
*794 FILLER_0_23_15
*795 FILLER_0_23_153
*796 FILLER_0_23_165
*797 FILLER_0_23_181
*798 FILLER_0_23_189
*799 FILLER_0_23_197
*800 FILLER_0_23_3
*801 FILLER_0_23_50
*802 FILLER_0_23_60
*803 FILLER_0_23_66
*804 FILLER_0_23_71
*805 FILLER_0_23_81
*806 FILLER_0_23_89
*807 FILLER_0_24_13
*808 FILLER_0_24_134
*809 FILLER_0_24_148
*810 FILLER_0_24_180
*811 FILLER_0_24_197
*812 FILLER_0_24_202
*813 FILLER_0_24_213
*814 FILLER_0_24_22
*815 FILLER_0_24_29
*816 FILLER_0_24_3
*817 FILLER_0_24_41
*818 FILLER_0_24_49
*819 FILLER_0_24_70
*820 FILLER_0_24_83
*821 FILLER_0_24_85
*822 FILLER_0_24_9
*823 FILLER_0_24_93
*824 FILLER_0_25_100
*825 FILLER_0_25_113
*826 FILLER_0_25_129
*827 FILLER_0_25_141
*828 FILLER_0_25_149
*829 FILLER_0_25_159
*830 FILLER_0_25_167
*831 FILLER_0_25_169
*832 FILLER_0_25_174
*833 FILLER_0_25_217
*834 FILLER_0_25_3
*835 FILLER_0_25_33
*836 FILLER_0_25_37
*837 FILLER_0_25_48
*838 FILLER_0_25_62
*839 FILLER_0_25_70
*840 FILLER_0_25_93
*841 FILLER_0_26_109
*842 FILLER_0_26_119
*843 FILLER_0_26_129
*844 FILLER_0_26_137
*845 FILLER_0_26_141
*846 FILLER_0_26_17
*847 FILLER_0_26_171
*848 FILLER_0_26_183
*849 FILLER_0_26_191
*850 FILLER_0_26_195
*851 FILLER_0_26_197
*852 FILLER_0_26_205
*853 FILLER_0_26_211
*854 FILLER_0_26_215
*855 FILLER_0_26_52
*856 FILLER_0_26_64
*857 FILLER_0_26_72
*858 FILLER_0_26_80
*859 FILLER_0_26_85
*860 FILLER_0_26_9
*861 FILLER_0_26_97
*862 FILLER_0_27_110
*863 FILLER_0_27_113
*864 FILLER_0_27_125
*865 FILLER_0_27_137
*866 FILLER_0_27_149
*867 FILLER_0_27_15
*868 FILLER_0_27_155
*869 FILLER_0_27_167
*870 FILLER_0_27_169
*871 FILLER_0_27_182
*872 FILLER_0_27_187
*873 FILLER_0_27_19
*874 FILLER_0_27_195
*875 FILLER_0_27_3
*876 FILLER_0_27_42
*877 FILLER_0_27_54
*878 FILLER_0_27_57
*879 FILLER_0_27_89
*880 FILLER_0_27_93
*881 FILLER_0_28_11
*882 FILLER_0_28_111
*883 FILLER_0_28_119
*884 FILLER_0_28_127
*885 FILLER_0_28_131
*886 FILLER_0_28_137
*887 FILLER_0_28_141
*888 FILLER_0_28_15
*889 FILLER_0_28_153
*890 FILLER_0_28_165
*891 FILLER_0_28_195
*892 FILLER_0_28_201
*893 FILLER_0_28_217
*894 FILLER_0_28_25
*895 FILLER_0_28_3
*896 FILLER_0_28_37
*897 FILLER_0_28_43
*898 FILLER_0_28_55
*899 FILLER_0_28_80
*900 FILLER_0_28_85
*901 FILLER_0_28_96
*902 FILLER_0_29_105
*903 FILLER_0_29_119
*904 FILLER_0_29_127
*905 FILLER_0_29_150
*906 FILLER_0_29_169
*907 FILLER_0_29_179
*908 FILLER_0_29_191
*909 FILLER_0_29_199
*910 FILLER_0_29_203
*911 FILLER_0_29_214
*912 FILLER_0_29_218
*913 FILLER_0_29_29
*914 FILLER_0_29_3
*915 FILLER_0_29_53
*916 FILLER_0_29_64
*917 FILLER_0_29_73
*918 FILLER_0_29_81
*919 FILLER_0_29_93
*920 FILLER_0_2_104
*921 FILLER_0_2_131
*922 FILLER_0_2_139
*923 FILLER_0_2_15
*924 FILLER_0_2_190
*925 FILLER_0_2_197
*926 FILLER_0_2_209
*927 FILLER_0_2_217
*928 FILLER_0_2_27
*929 FILLER_0_2_29
*930 FILLER_0_2_3
*931 FILLER_0_2_41
*932 FILLER_0_2_51
*933 FILLER_0_2_82
*934 FILLER_0_2_88
*935 FILLER_0_30_109
*936 FILLER_0_30_120
*937 FILLER_0_30_132
*938 FILLER_0_30_141
*939 FILLER_0_30_15
*940 FILLER_0_30_150
*941 FILLER_0_30_181
*942 FILLER_0_30_189
*943 FILLER_0_30_217
*944 FILLER_0_30_29
*945 FILLER_0_30_3
*946 FILLER_0_30_48
*947 FILLER_0_30_54
*948 FILLER_0_30_70
*949 FILLER_0_30_82
*950 FILLER_0_30_85
*951 FILLER_0_30_97
*952 FILLER_0_31_100
*953 FILLER_0_31_113
*954 FILLER_0_31_125
*955 FILLER_0_31_137
*956 FILLER_0_31_149
*957 FILLER_0_31_157
*958 FILLER_0_31_165
*959 FILLER_0_31_169
*960 FILLER_0_31_174
*961 FILLER_0_31_186
*962 FILLER_0_31_198
*963 FILLER_0_31_21
*964 FILLER_0_31_210
*965 FILLER_0_31_33
*966 FILLER_0_31_48
*967 FILLER_0_31_57
*968 FILLER_0_31_63
*969 FILLER_0_31_83
*970 FILLER_0_31_9
*971 FILLER_0_31_91
*972 FILLER_0_32_118
*973 FILLER_0_32_122
*974 FILLER_0_32_128
*975 FILLER_0_32_132
*976 FILLER_0_32_15
*977 FILLER_0_32_162
*978 FILLER_0_32_174
*979 FILLER_0_32_182
*980 FILLER_0_32_188
*981 FILLER_0_32_197
*982 FILLER_0_32_209
*983 FILLER_0_32_217
*984 FILLER_0_32_27
*985 FILLER_0_32_29
*986 FILLER_0_32_3
*987 FILLER_0_32_35
*988 FILLER_0_32_57
*989 FILLER_0_32_85
*990 FILLER_0_32_93
*991 FILLER_0_33_116
*992 FILLER_0_33_134
*993 FILLER_0_33_149
*994 FILLER_0_33_15
*995 FILLER_0_33_161
*996 FILLER_0_33_167
*997 FILLER_0_33_169
*998 FILLER_0_33_175
*999 FILLER_0_33_204
*1000 FILLER_0_33_21
*1001 FILLER_0_33_216
*1002 FILLER_0_33_3
*1003 FILLER_0_33_33
*1004 FILLER_0_33_45
*1005 FILLER_0_33_51
*1006 FILLER_0_33_55
*1007 FILLER_0_33_57
*1008 FILLER_0_33_69
*1009 FILLER_0_33_81
*1010 FILLER_0_33_87
*1011 FILLER_0_34_120
*1012 FILLER_0_34_132
*1013 FILLER_0_34_141
*1014 FILLER_0_34_15
*1015 FILLER_0_34_153
*1016 FILLER_0_34_165
*1017 FILLER_0_34_177
*1018 FILLER_0_34_189
*1019 FILLER_0_34_195
*1020 FILLER_0_34_197
*1021 FILLER_0_34_209
*1022 FILLER_0_34_217
*1023 FILLER_0_34_27
*1024 FILLER_0_34_29
*1025 FILLER_0_34_3
*1026 FILLER_0_34_41
*1027 FILLER_0_34_70
*1028 FILLER_0_34_83
*1029 FILLER_0_34_85
*1030 FILLER_0_34_97
*1031 FILLER_0_35_103
*1032 FILLER_0_35_111
*1033 FILLER_0_35_116
*1034 FILLER_0_35_124
*1035 FILLER_0_35_14
*1036 FILLER_0_35_156
*1037 FILLER_0_35_169
*1038 FILLER_0_35_181
*1039 FILLER_0_35_193
*1040 FILLER_0_35_205
*1041 FILLER_0_35_217
*1042 FILLER_0_35_26
*1043 FILLER_0_35_3
*1044 FILLER_0_35_38
*1045 FILLER_0_35_46
*1046 FILLER_0_35_52
*1047 FILLER_0_35_66
*1048 FILLER_0_35_7
*1049 FILLER_0_36_100
*1050 FILLER_0_36_113
*1051 FILLER_0_36_121
*1052 FILLER_0_36_125
*1053 FILLER_0_36_137
*1054 FILLER_0_36_141
*1055 FILLER_0_36_149
*1056 FILLER_0_36_153
*1057 FILLER_0_36_16
*1058 FILLER_0_36_165
*1059 FILLER_0_36_169
*1060 FILLER_0_36_177
*1061 FILLER_0_36_181
*1062 FILLER_0_36_193
*1063 FILLER_0_36_197
*1064 FILLER_0_36_205
*1065 FILLER_0_36_29
*1066 FILLER_0_36_37
*1067 FILLER_0_36_41
*1068 FILLER_0_36_53
*1069 FILLER_0_36_57
*1070 FILLER_0_36_65
*1071 FILLER_0_36_72
*1072 FILLER_0_36_85
*1073 FILLER_0_36_9
*1074 FILLER_0_36_93
*1075 FILLER_0_3_101
*1076 FILLER_0_3_111
*1077 FILLER_0_3_113
*1078 FILLER_0_3_128
*1079 FILLER_0_3_140
*1080 FILLER_0_3_144
*1081 FILLER_0_3_15
*1082 FILLER_0_3_156
*1083 FILLER_0_3_166
*1084 FILLER_0_3_180
*1085 FILLER_0_3_192
*1086 FILLER_0_3_204
*1087 FILLER_0_3_216
*1088 FILLER_0_3_27
*1089 FILLER_0_3_3
*1090 FILLER_0_3_70
*1091 FILLER_0_3_93
*1092 FILLER_0_4_109
*1093 FILLER_0_4_132
*1094 FILLER_0_4_15
*1095 FILLER_0_4_177
*1096 FILLER_0_4_189
*1097 FILLER_0_4_195
*1098 FILLER_0_4_197
*1099 FILLER_0_4_209
*1100 FILLER_0_4_217
*1101 FILLER_0_4_27
*1102 FILLER_0_4_29
*1103 FILLER_0_4_3
*1104 FILLER_0_4_41
*1105 FILLER_0_4_53
*1106 FILLER_0_4_57
*1107 FILLER_0_4_65
*1108 FILLER_0_4_71
*1109 FILLER_0_4_79
*1110 FILLER_0_4_83
*1111 FILLER_0_4_85
*1112 FILLER_0_4_97
*1113 FILLER_0_5_15
*1114 FILLER_0_5_153
*1115 FILLER_0_5_165
*1116 FILLER_0_5_177
*1117 FILLER_0_5_189
*1118 FILLER_0_5_201
*1119 FILLER_0_5_213
*1120 FILLER_0_5_27
*1121 FILLER_0_5_3
*1122 FILLER_0_5_39
*1123 FILLER_0_5_51
*1124 FILLER_0_5_55
*1125 FILLER_0_5_60
*1126 FILLER_0_5_66
*1127 FILLER_0_5_74
*1128 FILLER_0_5_78
*1129 FILLER_0_5_82
*1130 FILLER_0_5_90
*1131 FILLER_0_6_128
*1132 FILLER_0_6_141
*1133 FILLER_0_6_145
*1134 FILLER_0_6_153
*1135 FILLER_0_6_162
*1136 FILLER_0_6_171
*1137 FILLER_0_6_175
*1138 FILLER_0_6_197
*1139 FILLER_0_6_209
*1140 FILLER_0_6_21
*1141 FILLER_0_6_215
*1142 FILLER_0_6_25
*1143 FILLER_0_6_38
*1144 FILLER_0_6_46
*1145 FILLER_0_6_9
*1146 FILLER_0_7_100
*1147 FILLER_0_7_105
*1148 FILLER_0_7_111
*1149 FILLER_0_7_113
*1150 FILLER_0_7_125
*1151 FILLER_0_7_137
*1152 FILLER_0_7_149
*1153 FILLER_0_7_15
*1154 FILLER_0_7_161
*1155 FILLER_0_7_167
*1156 FILLER_0_7_169
*1157 FILLER_0_7_177
*1158 FILLER_0_7_183
*1159 FILLER_0_7_189
*1160 FILLER_0_7_197
*1161 FILLER_0_7_210
*1162 FILLER_0_7_218
*1163 FILLER_0_7_3
*1164 FILLER_0_7_47
*1165 FILLER_0_7_55
*1166 FILLER_0_7_57
*1167 FILLER_0_7_69
*1168 FILLER_0_7_96
*1169 FILLER_0_8_109
*1170 FILLER_0_8_121
*1171 FILLER_0_8_133
*1172 FILLER_0_8_139
*1173 FILLER_0_8_141
*1174 FILLER_0_8_15
*1175 FILLER_0_8_153
*1176 FILLER_0_8_167
*1177 FILLER_0_8_179
*1178 FILLER_0_8_195
*1179 FILLER_0_8_217
*1180 FILLER_0_8_27
*1181 FILLER_0_8_29
*1182 FILLER_0_8_3
*1183 FILLER_0_8_41
*1184 FILLER_0_8_46
*1185 FILLER_0_8_54
*1186 FILLER_0_8_71
*1187 FILLER_0_8_83
*1188 FILLER_0_8_85
*1189 FILLER_0_8_97
*1190 FILLER_0_9_101
*1191 FILLER_0_9_110
*1192 FILLER_0_9_113
*1193 FILLER_0_9_121
*1194 FILLER_0_9_145
*1195 FILLER_0_9_15
*1196 FILLER_0_9_151
*1197 FILLER_0_9_169
*1198 FILLER_0_9_181
*1199 FILLER_0_9_193
*1200 FILLER_0_9_205
*1201 FILLER_0_9_217
*1202 FILLER_0_9_27
*1203 FILLER_0_9_3
*1204 FILLER_0_9_33
*1205 FILLER_0_9_54
*1206 FILLER_0_9_57
*1207 FILLER_0_9_78
*1208 FILLER_0_9_90
*1209 FILLER_0_9_94
*1210 PHY_0
*1211 PHY_1
*1212 PHY_10
*1213 PHY_11
*1214 PHY_12
*1215 PHY_13
*1216 PHY_14
*1217 PHY_15
*1218 PHY_16
*1219 PHY_17
*1220 PHY_18
*1221 PHY_19
*1222 PHY_2
*1223 PHY_20
*1224 PHY_21
*1225 PHY_22
*1226 PHY_23
*1227 PHY_24
*1228 PHY_25
*1229 PHY_26
*1230 PHY_27
*1231 PHY_28
*1232 PHY_29
*1233 PHY_3
*1234 PHY_30
*1235 PHY_31
*1236 PHY_32
*1237 PHY_33
*1238 PHY_34
*1239 PHY_35
*1240 PHY_36
*1241 PHY_37
*1242 PHY_38
*1243 PHY_39
*1244 PHY_4
*1245 PHY_40
*1246 PHY_41
*1247 PHY_42
*1248 PHY_43
*1249 PHY_44
*1250 PHY_45
*1251 PHY_46
*1252 PHY_47
*1253 PHY_48
*1254 PHY_49
*1255 PHY_5
*1256 PHY_50
*1257 PHY_51
*1258 PHY_52
*1259 PHY_53
*1260 PHY_54
*1261 PHY_55
*1262 PHY_56
*1263 PHY_57
*1264 PHY_58
*1265 PHY_59
*1266 PHY_6
*1267 PHY_60
*1268 PHY_61
*1269 PHY_62
*1270 PHY_63
*1271 PHY_64
*1272 PHY_65
*1273 PHY_66
*1274 PHY_67
*1275 PHY_68
*1276 PHY_69
*1277 PHY_7
*1278 PHY_70
*1279 PHY_71
*1280 PHY_72
*1281 PHY_73
*1282 PHY_8
*1283 PHY_9
*1284 TAP_100
*1285 TAP_101
*1286 TAP_102
*1287 TAP_103
*1288 TAP_104
*1289 TAP_105
*1290 TAP_106
*1291 TAP_107
*1292 TAP_108
*1293 TAP_109
*1294 TAP_110
*1295 TAP_111
*1296 TAP_112
*1297 TAP_113
*1298 TAP_114
*1299 TAP_115
*1300 TAP_116
*1301 TAP_117
*1302 TAP_118
*1303 TAP_119
*1304 TAP_120
*1305 TAP_121
*1306 TAP_122
*1307 TAP_123
*1308 TAP_124
*1309 TAP_125
*1310 TAP_126
*1311 TAP_127
*1312 TAP_128
*1313 TAP_129
*1314 TAP_130
*1315 TAP_131
*1316 TAP_132
*1317 TAP_133
*1318 TAP_134
*1319 TAP_135
*1320 TAP_136
*1321 TAP_137
*1322 TAP_138
*1323 TAP_139
*1324 TAP_140
*1325 TAP_141
*1326 TAP_142
*1327 TAP_143
*1328 TAP_144
*1329 TAP_145
*1330 TAP_146
*1331 TAP_147
*1332 TAP_148
*1333 TAP_149
*1334 TAP_150
*1335 TAP_151
*1336 TAP_152
*1337 TAP_153
*1338 TAP_154
*1339 TAP_155
*1340 TAP_156
*1341 TAP_157
*1342 TAP_158
*1343 TAP_159
*1344 TAP_160
*1345 TAP_161
*1346 TAP_162
*1347 TAP_163
*1348 TAP_164
*1349 TAP_165
*1350 TAP_166
*1351 TAP_167
*1352 TAP_168
*1353 TAP_169
*1354 TAP_170
*1355 TAP_171
*1356 TAP_172
*1357 TAP_173
*1358 TAP_174
*1359 TAP_175
*1360 TAP_176
*1361 TAP_177
*1362 TAP_178
*1363 TAP_179
*1364 TAP_180
*1365 TAP_181
*1366 TAP_182
*1367 TAP_183
*1368 TAP_184
*1369 TAP_185
*1370 TAP_186
*1371 TAP_187
*1372 TAP_188
*1373 TAP_189
*1374 TAP_190
*1375 TAP_191
*1376 TAP_192
*1377 TAP_193
*1378 TAP_194
*1379 TAP_195
*1380 TAP_196
*1381 TAP_197
*1382 TAP_198
*1383 TAP_199
*1384 TAP_200
*1385 TAP_201
*1386 TAP_202
*1387 TAP_203
*1388 TAP_204
*1389 TAP_205
*1390 TAP_206
*1391 TAP_207
*1392 TAP_208
*1393 TAP_209
*1394 TAP_74
*1395 TAP_75
*1396 TAP_76
*1397 TAP_77
*1398 TAP_78
*1399 TAP_79
*1400 TAP_80
*1401 TAP_81
*1402 TAP_82
*1403 TAP_83
*1404 TAP_84
*1405 TAP_85
*1406 TAP_86
*1407 TAP_87
*1408 TAP_88
*1409 TAP_89
*1410 TAP_90
*1411 TAP_91
*1412 TAP_92
*1413 TAP_93
*1414 TAP_94
*1415 TAP_95
*1416 TAP_96
*1417 TAP_97
*1418 TAP_98
*1419 TAP_99
*1420 _347_
*1421 _348_
*1422 _349_
*1423 _350_
*1424 _351_
*1425 _352_
*1426 _353_
*1427 _354_
*1428 _355_
*1429 _356_
*1430 _357_
*1431 _358_
*1432 _359_
*1433 _360_
*1434 _361_
*1435 _362_
*1436 _363_
*1437 _364_
*1438 _365_
*1439 _366_
*1440 _367_
*1441 _368_
*1442 _369_
*1443 _370_
*1444 _371_
*1445 _372_
*1446 _373_
*1447 _374_
*1448 _375_
*1449 _376_
*1450 _377_
*1451 _378_
*1452 _379_
*1453 _380_
*1454 _381_
*1455 _382_
*1456 _383_
*1457 _384_
*1458 _385_
*1459 _386_
*1460 _387_
*1461 _388_
*1462 _389_
*1463 _390_
*1464 _391_
*1465 _392_
*1466 _393_
*1467 _394_
*1468 _395_
*1469 _396_
*1470 _397_
*1471 _398_
*1472 _399_
*1473 _400_
*1474 _401_
*1475 _402_
*1476 _403_
*1477 _404_
*1478 _405_
*1479 _406_
*1480 _407_
*1481 _408_
*1482 _409_
*1483 _410_
*1484 _411_
*1485 _412_
*1486 _413_
*1487 _414_
*1488 _415_
*1489 _416_
*1490 _417_
*1491 _418_
*1492 _419_
*1493 _420_
*1494 _421_
*1495 _422_
*1496 _423_
*1497 _424_
*1498 _425_
*1499 _426_
*1500 _427_
*1501 _428_
*1502 _429_
*1503 _430_
*1504 _431_
*1505 _432_
*1506 _433_
*1507 _434_
*1508 _435_
*1509 _436_
*1510 _437_
*1511 _438_
*1512 _439_
*1513 _440_
*1514 _441_
*1515 _442_
*1516 _443_
*1517 _444_
*1518 _445_
*1519 _446_
*1520 _447_
*1521 _448_
*1522 _449_
*1523 _450_
*1524 _451_
*1525 _452_
*1526 _453_
*1527 _454_
*1528 _455_
*1529 _456_
*1530 _457_
*1531 _458_
*1532 _459_
*1533 _460_
*1534 _461_
*1535 _462_
*1536 _463_
*1537 _464_
*1538 _465_
*1539 _466_
*1540 _467_
*1541 _468_
*1542 _469_
*1543 _470_
*1544 _471_
*1545 _472_
*1546 _473_
*1547 _474_
*1548 _475_
*1549 _476_
*1550 _477_
*1551 _478_
*1552 _479_
*1553 _480_
*1554 _481_
*1555 _482_
*1556 _483_
*1557 _484_
*1558 _485_
*1559 _486_
*1560 _487_
*1561 _488_
*1562 _489_
*1563 _490_
*1564 _491_
*1565 _492_
*1566 _493_
*1567 _494_
*1568 _495_
*1569 _496_
*1570 _497_
*1571 _498_
*1572 _499_
*1573 _500_
*1574 _501_
*1575 _502_
*1576 _503_
*1577 _504_
*1578 _505_
*1579 _506_
*1580 _507_
*1581 _508_
*1582 _509_
*1583 _510_
*1584 _511_
*1585 _512_
*1586 _513_
*1587 _514_
*1588 _515_
*1589 _516_
*1590 _517_
*1591 _518_
*1592 _519_
*1593 _520_
*1594 _521_
*1595 _522_
*1596 _523_
*1597 _524_
*1598 _525_
*1599 _526_
*1600 _527_
*1601 _528_
*1602 _529_
*1603 _530_
*1604 _531_
*1605 _532_
*1606 _533_
*1607 _534_
*1608 _535_
*1609 _536_
*1610 _537_
*1611 _538_
*1612 _539_
*1613 _540_
*1614 _541_
*1615 _542_
*1616 _543_
*1617 _544_
*1618 _545_
*1619 _546_
*1620 _547_
*1621 _548_
*1622 _549_
*1623 _550_
*1624 _551_
*1625 _552_
*1626 _553_
*1627 _554_
*1628 _555_
*1629 _556_
*1630 _557_
*1631 _558_
*1632 _559_
*1633 _560_
*1634 _561_
*1635 _562_
*1636 _563_
*1637 _564_
*1638 _565_
*1639 _566_
*1640 _567_
*1641 _568_
*1642 _569_
*1643 _570_
*1644 _571_
*1645 _572_
*1646 _573_
*1647 _574_
*1648 _575_
*1649 _576_
*1650 _577_
*1651 _578_
*1652 _579_
*1653 _580_
*1654 _581_
*1655 _582_
*1656 _583_
*1657 _584_
*1658 _585_
*1659 _586_
*1660 _587_
*1661 _588_
*1662 _589_
*1663 _590_
*1664 _591_
*1665 _592_
*1666 _593_
*1667 _594_
*1668 _595_
*1669 _596_
*1670 _597_
*1671 _598_
*1672 _599_
*1673 _600_
*1674 _601_
*1675 _602_
*1676 _603_
*1677 _604_
*1678 _605_
*1679 _606_
*1680 _607_
*1681 _608_
*1682 _609_
*1683 _610_
*1684 _611_
*1685 _612_
*1686 _613_
*1687 _614_
*1688 _615_
*1689 _616_
*1690 _617_
*1691 _618_
*1692 _619_
*1693 _620_
*1694 _621_
*1695 _622_
*1696 _623_
*1697 _624_
*1698 _625_
*1699 _626_
*1700 _627_
*1701 _628_
*1702 _629_
*1703 _630_
*1704 _631_
*1705 _632_
*1706 _633_
*1707 _634_
*1708 _635_
*1709 _636_
*1710 _637_
*1711 _638_
*1712 _639_
*1713 _640_
*1714 _641_
*1715 _642_
*1716 _643_
*1717 _644_
*1718 _645_
*1719 _646_
*1720 _647_
*1721 _648_
*1722 _649_
*1723 _650_
*1724 _651_
*1725 _652_
*1726 _653_
*1727 _654_
*1728 _655_
*1729 _656_
*1730 _657_
*1731 _658_
*1732 _659_
*1733 _660_
*1734 _661_
*1735 _662_
*1736 _663_
*1737 _664_
*1738 _665_
*1739 _666_
*1740 _667_
*1741 _668_
*1742 _669_
*1743 _670_
*1744 _671_
*1745 _672_
*1746 _673_
*1747 _674_
*1748 _675_
*1749 _676_
*1750 _677_
*1751 _678_
*1752 _679_
*1753 _680_
*1754 _681_
*1755 _682_
*1756 _683_
*1757 _684_
*1758 _685_
*1759 _686_
*1760 _687_
*1761 _688_
*1762 _689_
*1763 _690_
*1764 _691_
*1765 _692_
*1766 _693_
*1767 _694_
*1768 _695_
*1769 _696_
*1770 _697_
*1771 _698_
*1772 _699_
*1773 _700_
*1774 _701_
*1775 _702_
*1776 _703_
*1777 _704_
*1778 _705_
*1779 _706_
*1780 _707_
*1781 _708_
*1782 _709_
*1783 _710_
*1784 _711_
*1785 _712_
*1786 _713_
*1787 _714_
*1788 _715_
*1789 _716_
*1790 _717_
*1791 _718_
*1792 _719_
*1793 _720_
*1794 _721_
*1795 _722_
*1796 _723_
*1797 _724_
*1798 _725_
*1799 _726_
*1800 _727_
*1801 _728_
*1802 _729_
*1803 _730_
*1804 _731_
*1805 _732_
*1806 _733_
*1807 _734_
*1808 _735_
*1809 _736_
*1810 _737_
*1811 _738_
*1812 _739_
*1813 _740_
*1814 _741_
*1815 _742_
*1816 _743_
*1817 _744_
*1818 _745_
*1819 _746_
*1820 _747_
*1821 clkbuf_0_clk
*1822 clkbuf_2_0__f_clk
*1823 clkbuf_2_1__f_clk
*1824 clkbuf_2_2__f_clk
*1825 clkbuf_2_3__f_clk
*1826 hold1
*1827 hold10
*1828 hold11
*1829 hold12
*1830 hold13
*1831 hold14
*1832 hold15
*1833 hold16
*1834 hold17
*1835 hold18
*1836 hold19
*1837 hold2
*1838 hold20
*1839 hold21
*1840 hold22
*1841 hold23
*1842 hold24
*1843 hold25
*1844 hold26
*1845 hold27
*1846 hold28
*1847 hold29
*1848 hold3
*1849 hold30
*1850 hold31
*1851 hold32
*1852 hold33
*1853 hold4
*1854 hold5
*1855 hold6
*1856 hold7
*1857 hold8
*1858 hold9
*1859 input1
*1860 input10
*1861 input11
*1862 input12
*1863 input13
*1864 input14
*1865 input15
*1866 input16
*1867 input17
*1868 input18
*1869 input2
*1870 input3
*1871 input4
*1872 input5
*1873 input6
*1874 input7
*1875 input8
*1876 input9
*1877 max_cap1
*1878 output19
*1879 output20
*1880 output21
*1881 output22
*1882 output23
*1883 output24
*1884 output25
*1885 output26
*1886 output27
*1887 output28
*1888 output29
*1889 output30
*1890 output31
*1891 output32
*1892 output33
*1893 output34
*1894 output35
*1895 wire36

*PORTS
clk I
done O
multiplicand[0] I
multiplicand[1] I
multiplicand[2] I
multiplicand[3] I
multiplicand[4] I
multiplicand[5] I
multiplicand[6] I
multiplicand[7] I
multiplier[0] I
multiplier[1] I
multiplier[2] I
multiplier[3] I
multiplier[4] I
multiplier[5] I
multiplier[6] I
multiplier[7] I
product[0] O
product[10] O
product[11] O
product[12] O
product[13] O
product[14] O
product[15] O
product[1] O
product[2] O
product[3] O
product[4] O
product[5] O
product[6] O
product[7] O
product[8] O
product[9] O
rst I
start I

*D_NET *3 0.0197467
*CONN
*P clk I
*I *1821:A I *D sky130_fd_sc_hd__clkbuf_16
*CAP
1 clk 0.00502488
2 *1821:A 0
3 *3:23 0.00502488
4 *3:23 product[13] 0
5 *3:23 *1497:B1 8.14155e-05
6 *3:23 *1648:A1 0.00204908
7 *3:23 *1653:A1 0.00482598
8 *3:23 *1787:CLK 0.000101601
9 *3:23 *1861:A 0
10 *3:23 *172:21 0.000113887
11 *3:23 *228:39 0
12 *3:23 *238:10 7.27028e-05
13 *3:23 *360:24 0.000633129
14 *3:23 *386:20 0.00181911
15 *3:23 *408:26 0
*RES
1 clk *3:23 49.2099 
2 *3:23 *1821:A 9.3 
*END

*D_NET *4 0.000581552
*CONN
*P done O
*I *1878:X O *D sky130_fd_sc_hd__clkbuf_4
*CAP
1 done 0.000284966
2 *1878:X 0.000284966
3 done *1878:A 1.16198e-05
*RES
1 *1878:X done 18.6586 
*END

*D_NET *5 0.00104155
*CONN
*P multiplicand[0] I
*I *1859:A I *D sky130_fd_sc_hd__buf_1
*CAP
1 multiplicand[0] 0.000520777
2 *1859:A 0.000520777
*RES
1 multiplicand[0] *1859:A 24.0857 
*END

*D_NET *6 0.000980709
*CONN
*P multiplicand[1] I
*I *1869:A I *D sky130_fd_sc_hd__clkbuf_1
*CAP
1 multiplicand[1] 0.000451467
2 *1869:A 0.000451467
3 *1869:A *393:6 7.77751e-05
*RES
1 multiplicand[1] *1869:A 22.6571 
*END

*D_NET *7 0.000960995
*CONN
*P multiplicand[2] I
*I *1870:A I *D sky130_fd_sc_hd__clkbuf_1
*CAP
1 multiplicand[2] 0.000460409
2 *1870:A 0.000460409
3 *1870:A *1638:A0 4.01768e-05
*RES
1 multiplicand[2] *1870:A 22.6571 
*END

*D_NET *8 0.00115168
*CONN
*P multiplicand[3] I
*I *1871:A I *D sky130_fd_sc_hd__clkbuf_1
*CAP
1 multiplicand[3] 0.000575838
2 *1871:A 0.000575838
*RES
1 multiplicand[3] *1871:A 24.7821 
*END

*D_NET *9 0.00070162
*CONN
*P multiplicand[4] I
*I *1872:A I *D sky130_fd_sc_hd__clkbuf_1
*CAP
1 multiplicand[4] 0.000301244
2 *1872:A 0.000301244
3 *1872:A *1634:A0 5.03772e-05
4 *1872:A *387:140 4.87541e-05
*RES
1 multiplicand[4] *1872:A 19.98 
*END

*D_NET *10 0.000744441
*CONN
*P multiplicand[5] I
*I *1873:A I *D sky130_fd_sc_hd__clkbuf_1
*CAP
1 multiplicand[5] 0.00037222
2 *1873:A 0.00037222
3 *1873:A *1784:D 0
*RES
1 multiplicand[5] *1873:A 22.2804 
*END

*D_NET *11 0.000598557
*CONN
*P multiplicand[6] I
*I *1874:A I *D sky130_fd_sc_hd__clkbuf_1
*CAP
1 multiplicand[6] 0.000299278
2 *1874:A 0.000299278
3 *1874:A *1855:A 0
4 *1874:A *395:10 0
*RES
1 multiplicand[6] *1874:A 20.6382 
*END

*D_NET *12 0.00186154
*CONN
*P multiplicand[7] I
*I *1875:A I *D sky130_fd_sc_hd__clkbuf_1
*CAP
1 multiplicand[7] 0.000930768
2 *1875:A 0.000930768
*RES
1 multiplicand[7] *1875:A 31.4786 
*END

*D_NET *13 0.00115109
*CONN
*P multiplier[0] I
*I *1876:A I *D sky130_fd_sc_hd__clkbuf_1
*CAP
1 multiplier[0] 0.000559611
2 *1876:A 0.000559611
3 *1876:A *460:10 3.18676e-05
*RES
1 multiplier[0] *1876:A 24.7821 
*END

*D_NET *14 0.000531716
*CONN
*P multiplier[1] I
*I *1860:A I *D sky130_fd_sc_hd__buf_1
*CAP
1 multiplier[1] 0.000265858
2 *1860:A 0.000265858
*RES
1 multiplier[1] *1860:A 20.5482 
*END

*D_NET *15 0.00242188
*CONN
*P multiplier[2] I
*I *1861:A I *D sky130_fd_sc_hd__buf_1
*CAP
1 multiplier[2] 0.00111176
2 *1861:A 0.00111176
3 *1861:A *393:6 0.000198352
4 *3:23 *1861:A 0
*RES
1 multiplier[2] *1861:A 32.7007 
*END

*D_NET *16 0.000683772
*CONN
*P multiplier[3] I
*I *1862:A I *D sky130_fd_sc_hd__clkbuf_1
*CAP
1 multiplier[3] 0.000313736
2 *1862:A 0.000313736
3 *1862:A *1864:A 0
4 *1862:A *394:12 5.62995e-05
*RES
1 multiplier[3] *1862:A 21.6732 
*END

*D_NET *17 0.000669024
*CONN
*P multiplier[4] I
*I *1863:A I *D sky130_fd_sc_hd__buf_1
*CAP
1 multiplier[4] 0.000330258
2 *1863:A 0.000330258
3 *1863:A *395:10 8.50795e-06
4 *1863:A *415:27 0
*RES
1 multiplier[4] *1863:A 20.8174 
*END

*D_NET *18 0.00153862
*CONN
*P multiplier[5] I
*I *1864:A I *D sky130_fd_sc_hd__clkbuf_1
*CAP
1 multiplier[5] 0.00074922
2 *1864:A 0.00074922
3 *1864:A *396:16 4.01768e-05
4 *1862:A *1864:A 0
*RES
1 multiplier[5] *1864:A 28.4071 
*END

*D_NET *19 0.000677474
*CONN
*P multiplier[6] I
*I *1865:A I *D sky130_fd_sc_hd__buf_1
*CAP
1 multiplier[6] 0.0003325
2 *1865:A 0.0003325
3 *1865:A *1649:A1 7.54369e-06
4 *1865:A *415:25 4.93118e-06
*RES
1 multiplier[6] *1865:A 20.8174 
*END

*D_NET *20 0.00115109
*CONN
*P multiplier[7] I
*I *1866:A I *D sky130_fd_sc_hd__clkbuf_1
*CAP
1 multiplier[7] 0.000559611
2 *1866:A 0.000559611
3 *1866:A *398:12 3.18676e-05
*RES
1 multiplier[7] *1866:A 24.7821 
*END

*D_NET *21 0.0005714
*CONN
*P product[0] O
*I *1879:X O *D sky130_fd_sc_hd__clkbuf_4
*CAP
1 product[0] 0.0002857
2 *1879:X 0.0002857
*RES
1 *1879:X product[0] 18.267 
*END

*D_NET *22 0.00134734
*CONN
*P product[10] O
*I *1880:X O *D sky130_fd_sc_hd__clkbuf_4
*CAP
1 product[10] 0.000557468
2 *1880:X 0.000557468
3 product[10] *1867:A 0.000232399
*RES
1 *1880:X product[10] 25.3 
*END

*D_NET *23 0.000754184
*CONN
*P product[11] O
*I *1881:X O *D sky130_fd_sc_hd__clkbuf_4
*CAP
1 product[11] 0.000377092
2 *1881:X 0.000377092
*RES
1 *1881:X product[11] 21.3536 
*END

*D_NET *24 0.00122011
*CONN
*P product[12] O
*I *1882:X O *D sky130_fd_sc_hd__clkbuf_4
*CAP
1 product[12] 0.000610055
2 *1882:X 0.000610055
*RES
1 *1882:X product[12] 25.3 
*END

*D_NET *25 0.000503045
*CONN
*P product[13] O
*I *1883:X O *D sky130_fd_sc_hd__buf_2
*CAP
1 product[13] 0.000251522
2 *1883:X 0.000251522
3 *3:23 product[13] 0
*RES
1 *1883:X product[13] 18.1949 
*END

*D_NET *26 0.000700258
*CONN
*P product[14] O
*I *1884:X O *D sky130_fd_sc_hd__clkbuf_4
*CAP
1 product[14] 0.000350129
2 *1884:X 0.000350129
*RES
1 *1884:X product[14] 20.6929 
*END

*D_NET *27 0.000754184
*CONN
*P product[15] O
*I *1885:X O *D sky130_fd_sc_hd__clkbuf_4
*CAP
1 product[15] 0.000377092
2 *1885:X 0.000377092
*RES
1 *1885:X product[15] 21.3536 
*END

*D_NET *28 0.000578057
*CONN
*P product[1] O
*I *1886:X O *D sky130_fd_sc_hd__clkbuf_4
*CAP
1 product[1] 0.000289029
2 *1886:X 0.000289029
*RES
1 *1886:X product[1] 18.267 
*END

*D_NET *29 0.000590735
*CONN
*P product[2] O
*I *1887:X O *D sky130_fd_sc_hd__clkbuf_4
*CAP
1 product[2] 0.000272676
2 *1887:X 0.000272676
3 product[2] *395:14 4.53834e-05
*RES
1 *1887:X product[2] 18.9621 
*END

*D_NET *30 0.000754184
*CONN
*P product[3] O
*I *1888:X O *D sky130_fd_sc_hd__clkbuf_4
*CAP
1 product[3] 0.000377092
2 *1888:X 0.000377092
*RES
1 *1888:X product[3] 21.3536 
*END

*D_NET *31 0.000704829
*CONN
*P product[4] O
*I *1889:X O *D sky130_fd_sc_hd__clkbuf_4
*CAP
1 product[4] 0.000341847
2 *1889:X 0.000341847
3 product[4] *1889:A 2.11336e-05
*RES
1 *1889:X product[4] 20.7625 
*END

*D_NET *32 0.000659504
*CONN
*P product[5] O
*I *1890:X O *D sky130_fd_sc_hd__buf_2
*CAP
1 product[5] 0.000323654
2 *1890:X 0.000323654
3 product[5] *415:27 1.21955e-05
*RES
1 *1890:X product[5] 18.1949 
*END

*D_NET *33 0.00122011
*CONN
*P product[6] O
*I *1891:X O *D sky130_fd_sc_hd__clkbuf_4
*CAP
1 product[6] 0.000610055
2 *1891:X 0.000610055
*RES
1 *1891:X product[6] 25.3 
*END

*D_NET *34 0.00122417
*CONN
*P product[7] O
*I *1892:X O *D sky130_fd_sc_hd__clkbuf_4
*CAP
1 product[7] 0.000612085
2 *1892:X 0.000612085
*RES
1 *1892:X product[7] 25.3 
*END

*D_NET *35 0.000973243
*CONN
*P product[8] O
*I *1893:X O *D sky130_fd_sc_hd__clkbuf_4
*CAP
1 product[8] 0.000453322
2 *1893:X 0.000453322
3 product[8] *1893:A 5.33433e-05
4 product[8] *393:6 1.32552e-05
*RES
1 *1893:X product[8] 22.05 
*END

*D_NET *36 0.000854144
*CONN
*P product[9] O
*I *1894:X O *D sky130_fd_sc_hd__clkbuf_4
*CAP
1 product[9] 0.000420738
2 *1894:X 0.000420738
3 product[9] *1632:S 0
4 product[9] *1803:CLK 1.26686e-05
*RES
1 *1894:X product[9] 18.7868 
*END

*D_NET *37 0.00297874
*CONN
*P rst I
*I *1867:A I *D sky130_fd_sc_hd__clkbuf_1
*CAP
1 rst 0.00121944
2 *1867:A 0.00121944
3 *1867:A *392:20 0.000307466
4 product[10] *1867:A 0.000232399
*RES
1 rst *1867:A 34.6681 
*END

*D_NET *38 0.000980105
*CONN
*P start I
*I *1868:A I *D sky130_fd_sc_hd__clkbuf_4
*CAP
1 start 0.000490053
2 *1868:A 0.000490053
3 *1868:A *1749:A 0
4 *1868:A *415:25 0
*RES
1 start *1868:A 19.8053 
*END

*D_NET *39 0.00065005
*CONN
*I *1771:D I *D sky130_fd_sc_hd__dfrtp_2
*I *1706:Y O *D sky130_fd_sc_hd__a21oi_1
*CAP
1 *1771:D 0.000116334
2 *1706:Y 0.000116334
3 *1771:D *1706:A2 4.59352e-05
4 *1771:D *1771:CLK 0.000182694
5 *1771:D *163:134 0.000188754
*RES
1 *1706:Y *1771:D 22.1536 
*END

*D_NET *40 0.00103136
*CONN
*I *1767:RESET_B I *D sky130_fd_sc_hd__dfrtp_1
*I *1709:Y O *D sky130_fd_sc_hd__inv_2
*CAP
1 *1767:RESET_B 0.000296922
2 *1709:Y 0.000296922
3 *1767:RESET_B *1705:B1_N 0.000309794
4 *1767:RESET_B *1767:CLK 2.48016e-05
5 *1767:RESET_B *1858:A 4.72217e-05
6 *1767:RESET_B *339:16 5.56943e-05
*RES
1 *1709:Y *1767:RESET_B 23.1125 
*END

*D_NET *41 0.000729808
*CONN
*I *1768:RESET_B I *D sky130_fd_sc_hd__dfrtp_1
*I *1710:Y O *D sky130_fd_sc_hd__inv_2
*CAP
1 *1768:RESET_B 0.000129783
2 *1710:Y 0.000129783
3 *1768:RESET_B *1749:A 0.000371533
4 *1768:RESET_B *400:22 0
5 *1768:RESET_B *495:10 4.79842e-05
6 *1768:RESET_B *495:21 5.0725e-05
*RES
1 *1710:Y *1768:RESET_B 22.9786 
*END

*D_NET *42 0.000409111
*CONN
*I *1769:RESET_B I *D sky130_fd_sc_hd__dfrtp_1
*I *1711:Y O *D sky130_fd_sc_hd__inv_2
*CAP
1 *1769:RESET_B 0.000112911
2 *1711:Y 0.000112911
3 *1769:RESET_B *381:100 3.37618e-05
4 *1769:RESET_B *415:27 5.1061e-05
5 *1769:RESET_B *422:14 9.84673e-05
*RES
1 *1711:Y *1769:RESET_B 20.5857 
*END

*D_NET *43 0.00104311
*CONN
*I *1770:RESET_B I *D sky130_fd_sc_hd__dfrtp_1
*I *1712:Y O *D sky130_fd_sc_hd__inv_2
*CAP
1 *1770:RESET_B 0.000294977
2 *1712:Y 0.000294977
3 *1770:RESET_B *1712:A 0.000186669
4 *1770:RESET_B *381:90 0.000266486
*RES
1 *1712:Y *1770:RESET_B 14.7018 
*END

*D_NET *44 0.000501126
*CONN
*I *1771:RESET_B I *D sky130_fd_sc_hd__dfrtp_2
*I *1713:Y O *D sky130_fd_sc_hd__inv_2
*CAP
1 *1771:RESET_B 0.000103121
2 *1713:Y 0.000103121
3 *1771:RESET_B *1671:A1 9.38161e-05
4 *1771:RESET_B *381:56 6.05161e-06
5 *1771:RESET_B *381:73 0.000195016
*RES
1 *1713:Y *1771:RESET_B 21.0857 
*END

*D_NET *45 0.000393317
*CONN
*I *1772:RESET_B I *D sky130_fd_sc_hd__dfrtp_4
*I *1714:Y O *D sky130_fd_sc_hd__inv_2
*CAP
1 *1772:RESET_B 0.000151322
2 *1714:Y 0.000151322
3 *1772:RESET_B *381:116 9.06726e-05
*RES
1 *1714:Y *1772:RESET_B 21.0857 
*END

*D_NET *46 0.000593078
*CONN
*I *1773:RESET_B I *D sky130_fd_sc_hd__dfrtp_1
*I *1715:Y O *D sky130_fd_sc_hd__inv_2
*CAP
1 *1773:RESET_B 0.000202807
2 *1715:Y 0.000202807
3 *1773:RESET_B *1628:A0 0
4 *1773:RESET_B *1695:A1 0.000187465
*RES
1 *1715:Y *1773:RESET_B 21.4071 
*END

*D_NET *47 0.000498866
*CONN
*I *1774:RESET_B I *D sky130_fd_sc_hd__dfrtp_1
*I *1716:Y O *D sky130_fd_sc_hd__inv_2
*CAP
1 *1774:RESET_B 8.12668e-05
2 *1716:Y 8.12668e-05
3 *1774:RESET_B *1694:A 2.85234e-05
4 *1774:RESET_B *382:32 0.000153047
5 *1774:RESET_B *384:12 0.000154762
*RES
1 *1716:Y *1774:RESET_B 20.7821 
*END

*D_NET *48 0.00106551
*CONN
*I *1775:RESET_B I *D sky130_fd_sc_hd__dfrtp_1
*I *1717:Y O *D sky130_fd_sc_hd__inv_2
*CAP
1 *1775:RESET_B 0.00027212
2 *1717:Y 0.00027212
3 *1775:RESET_B *1717:A 0.000521268
*RES
1 *1717:Y *1775:RESET_B 14.7018 
*END

*D_NET *49 0.000691702
*CONN
*I *1776:RESET_B I *D sky130_fd_sc_hd__dfrtp_1
*I *1718:Y O *D sky130_fd_sc_hd__inv_2
*CAP
1 *1776:RESET_B 0.000230424
2 *1718:Y 0.000230424
3 *1776:RESET_B *1689:A1 0.000230855
4 *1776:RESET_B *1845:A 0
*RES
1 *1718:Y *1776:RESET_B 21.8179 
*END

*D_NET *50 0.000372994
*CONN
*I *1777:RESET_B I *D sky130_fd_sc_hd__dfrtp_1
*I *1720:Y O *D sky130_fd_sc_hd__inv_2
*CAP
1 *1777:RESET_B 0.000110035
2 *1720:Y 0.000110035
3 *1777:RESET_B *1687:A1 0
4 *1777:RESET_B *1720:A 9.96242e-05
5 *1777:RESET_B *1777:D 0
6 *1777:RESET_B *487:43 5.33005e-05
*RES
1 *1720:Y *1777:RESET_B 20.175 
*END

*D_NET *51 0.000431822
*CONN
*I *1778:RESET_B I *D sky130_fd_sc_hd__dfrtp_1
*I *1721:Y O *D sky130_fd_sc_hd__inv_2
*CAP
1 *1778:RESET_B 0.000108232
2 *1721:Y 0.000108232
3 *1778:RESET_B *1778:CLK 1.9132e-05
4 *1778:RESET_B *382:16 5.65955e-05
5 *1778:RESET_B *382:32 0.000139631
*RES
1 *1721:Y *1778:RESET_B 11.4161 
*END

*D_NET *52 0.000338397
*CONN
*I *1779:RESET_B I *D sky130_fd_sc_hd__dfrtp_1
*I *1722:Y O *D sky130_fd_sc_hd__inv_2
*CAP
1 *1779:RESET_B 8.07282e-05
2 *1722:Y 8.07282e-05
3 *1779:RESET_B *1722:A 0.000176941
*RES
1 *1722:Y *1779:RESET_B 20.55 
*END

*D_NET *53 0.000165041
*CONN
*I *1780:RESET_B I *D sky130_fd_sc_hd__dfrtp_1
*I *1723:Y O *D sky130_fd_sc_hd__inv_2
*CAP
1 *1780:RESET_B 8.25204e-05
2 *1723:Y 8.25204e-05
*RES
1 *1723:Y *1780:RESET_B 19.6393 
*END

*D_NET *54 0.000979816
*CONN
*I *1781:RESET_B I *D sky130_fd_sc_hd__dfrtp_1
*I *1724:Y O *D sky130_fd_sc_hd__inv_2
*CAP
1 *1781:RESET_B 0.00037416
2 *1724:Y 0.00037416
3 *1781:RESET_B *1724:A 5.71472e-05
4 *1781:RESET_B *1781:CLK 6.05161e-06
5 *1781:RESET_B *1818:CLK 0
6 *1781:RESET_B *1844:A 0.000136422
7 *1781:RESET_B *417:6 3.18747e-05
*RES
1 *1724:Y *1781:RESET_B 16.3982 
*END

*D_NET *55 0.000493939
*CONN
*I *1782:RESET_B I *D sky130_fd_sc_hd__dfrtp_1
*I *1725:Y O *D sky130_fd_sc_hd__inv_2
*CAP
1 *1782:RESET_B 0.000164513
2 *1725:Y 0.000164513
3 *1782:RESET_B *1725:A 5.53136e-05
4 *1782:RESET_B *382:92 5.46508e-05
5 *1782:RESET_B *393:6 5.49489e-05
*RES
1 *1725:Y *1782:RESET_B 21.0857 
*END

*D_NET *56 0.000349473
*CONN
*I *1783:RESET_B I *D sky130_fd_sc_hd__dfrtp_1
*I *1726:Y O *D sky130_fd_sc_hd__inv_2
*CAP
1 *1783:RESET_B 0.000134463
2 *1726:Y 0.000134463
3 *1783:RESET_B *1840:A 2.38501e-05
4 *1783:RESET_B *382:72 5.66971e-05
*RES
1 *1726:Y *1783:RESET_B 11.4161 
*END

*D_NET *57 0.000638504
*CONN
*I *1784:RESET_B I *D sky130_fd_sc_hd__dfrtp_1
*I *1727:Y O *D sky130_fd_sc_hd__inv_2
*CAP
1 *1784:RESET_B 0.000126293
2 *1727:Y 0.000126293
3 *1784:RESET_B *1727:A 3.4879e-05
4 *1784:RESET_B *382:32 0.000175519
5 *1784:RESET_B *384:12 0.000175519
*RES
1 *1727:Y *1784:RESET_B 21.4964 
*END

*D_NET *58 0.000355965
*CONN
*I *1785:RESET_B I *D sky130_fd_sc_hd__dfrtp_1
*I *1728:Y O *D sky130_fd_sc_hd__inv_2
*CAP
1 *1785:RESET_B 0.000115325
2 *1728:Y 0.000115325
3 *1785:RESET_B *1672:A0 0
4 *1785:RESET_B *388:80 0.000125316
*RES
1 *1728:Y *1785:RESET_B 20.55 
*END

*D_NET *59 0.000336433
*CONN
*I *1786:RESET_B I *D sky130_fd_sc_hd__dfrtp_1
*I *1729:Y O *D sky130_fd_sc_hd__inv_2
*CAP
1 *1786:RESET_B 8.66626e-05
2 *1729:Y 8.66626e-05
3 *1786:RESET_B *1729:A 0.000163108
*RES
1 *1729:Y *1786:RESET_B 20.55 
*END

*D_NET *60 0.000378199
*CONN
*I *1787:RESET_B I *D sky130_fd_sc_hd__dfrtp_1
*I *1731:Y O *D sky130_fd_sc_hd__inv_2
*CAP
1 *1787:RESET_B 0.000121146
2 *1731:Y 0.000121146
3 *1787:RESET_B *1672:S 0
4 *1787:RESET_B *1731:A 8.00806e-05
5 *1787:RESET_B *1787:CLK 4.96254e-05
6 *1787:RESET_B *1838:A 6.20091e-06
*RES
1 *1731:Y *1787:RESET_B 20.5232 
*END

*D_NET *61 0.000384809
*CONN
*I *1788:RESET_B I *D sky130_fd_sc_hd__dfrtp_2
*I *1732:Y O *D sky130_fd_sc_hd__inv_2
*CAP
1 *1788:RESET_B 5.29728e-05
2 *1732:Y 5.29728e-05
3 *1788:RESET_B *1812:CLK 3.17067e-05
4 *1788:RESET_B *162:22 0.000179656
5 *1788:RESET_B *390:38 6.75007e-05
*RES
1 *1732:Y *1788:RESET_B 20.55 
*END

*D_NET *62 0.000443313
*CONN
*I *1789:RESET_B I *D sky130_fd_sc_hd__dfrtp_1
*I *1733:Y O *D sky130_fd_sc_hd__inv_2
*CAP
1 *1789:RESET_B 6.10897e-05
2 *1733:Y 6.10897e-05
3 *1789:RESET_B *1733:A 5.52302e-05
4 *1789:RESET_B *1848:A 8.25843e-06
5 *1789:RESET_B *331:8 0.00021984
6 *1789:RESET_B *409:14 3.47797e-05
7 *1789:RESET_B *481:37 3.02581e-06
*RES
1 *1733:Y *1789:RESET_B 11.4161 
*END

*D_NET *63 0.000199489
*CONN
*I *1790:RESET_B I *D sky130_fd_sc_hd__dfrtp_1
*I *1734:Y O *D sky130_fd_sc_hd__inv_2
*CAP
1 *1790:RESET_B 9.97447e-05
2 *1734:Y 9.97447e-05
3 *1790:RESET_B *151:74 0
4 *1790:RESET_B *238:10 0
*RES
1 *1734:Y *1790:RESET_B 19.9429 
*END

*D_NET *64 0.000373739
*CONN
*I *1791:RESET_B I *D sky130_fd_sc_hd__dfrtp_1
*I *1735:Y O *D sky130_fd_sc_hd__inv_2
*CAP
1 *1791:RESET_B 0.000100069
2 *1735:Y 0.000100069
3 *1791:RESET_B *383:12 0.000173601
*RES
1 *1735:Y *1791:RESET_B 20.55 
*END

*D_NET *65 0.000360607
*CONN
*I *1792:RESET_B I *D sky130_fd_sc_hd__dfrtp_1
*I *1736:Y O *D sky130_fd_sc_hd__inv_2
*CAP
1 *1792:RESET_B 0.000133718
2 *1736:Y 0.000133718
3 *1792:RESET_B *1736:A 5.71472e-05
4 *1792:RESET_B *383:99 3.60243e-05
*RES
1 *1736:Y *1792:RESET_B 11.4161 
*END

*D_NET *66 0.000645476
*CONN
*I *1793:RESET_B I *D sky130_fd_sc_hd__dfrtp_1
*I *1737:Y O *D sky130_fd_sc_hd__inv_2
*CAP
1 *1793:RESET_B 0.000112277
2 *1737:Y 0.000112277
3 *1793:RESET_B *1654:A2 0.000146474
4 *1793:RESET_B *1654:B2 2.58757e-05
5 *1793:RESET_B *266:79 4.70821e-05
6 *1793:RESET_B *314:65 0.000148189
7 *1793:RESET_B *387:52 5.33005e-05
*RES
1 *1737:Y *1793:RESET_B 21.2554 
*END

*D_NET *67 0.000474571
*CONN
*I *1794:RESET_B I *D sky130_fd_sc_hd__dfrtp_1
*I *1738:Y O *D sky130_fd_sc_hd__inv_2
*CAP
1 *1794:RESET_B 0.000170491
2 *1738:Y 0.000170491
3 *1794:RESET_B *1653:B1 0
4 *1794:RESET_B *1687:A0 0
5 *1794:RESET_B *303:63 0.00013359
*RES
1 *1738:Y *1794:RESET_B 21.0857 
*END

*D_NET *68 0.000507911
*CONN
*I *1795:RESET_B I *D sky130_fd_sc_hd__dfrtp_1
*I *1739:Y O *D sky130_fd_sc_hd__inv_2
*CAP
1 *1795:RESET_B 0.000150637
2 *1739:Y 0.000150637
3 *1795:RESET_B *1655:A2 8.94714e-05
4 *1795:RESET_B *383:48 5.50052e-05
5 *1795:RESET_B *383:61 6.21609e-05
*RES
1 *1739:Y *1795:RESET_B 12.2554 
*END

*D_NET *69 0.000560378
*CONN
*I *1796:RESET_B I *D sky130_fd_sc_hd__dfrtp_1
*I *1740:Y O *D sky130_fd_sc_hd__inv_2
*CAP
1 *1796:RESET_B 0.000133455
2 *1740:Y 0.000133455
3 *1796:RESET_B *1740:A 0.000168503
4 *1796:RESET_B *1782:CLK 4.27842e-06
5 *1796:RESET_B *388:18 7.78928e-05
6 *1796:RESET_B *388:41 4.27935e-05
*RES
1 *1740:Y *1796:RESET_B 21.4339 
*END

*D_NET *70 0.000456963
*CONN
*I *1797:RESET_B I *D sky130_fd_sc_hd__dfrtp_2
*I *1742:Y O *D sky130_fd_sc_hd__inv_2
*CAP
1 *1797:RESET_B 0.000147499
2 *1742:Y 0.000147499
3 *1797:RESET_B *163:22 0.000105092
4 *1797:RESET_B *473:8 5.68722e-05
*RES
1 *1742:Y *1797:RESET_B 21.0857 
*END

*D_NET *71 0.000298808
*CONN
*I *1798:RESET_B I *D sky130_fd_sc_hd__dfrtp_4
*I *1743:Y O *D sky130_fd_sc_hd__inv_2
*CAP
1 *1798:RESET_B 7.50556e-05
2 *1743:Y 7.50556e-05
3 *1798:RESET_B *360:113 9.06726e-05
4 *1798:RESET_B *384:43 5.8024e-05
*RES
1 *1743:Y *1798:RESET_B 20.55 
*END

*D_NET *72 0.000576564
*CONN
*I *1799:RESET_B I *D sky130_fd_sc_hd__dfrtp_2
*I *1744:Y O *D sky130_fd_sc_hd__inv_2
*CAP
1 *1799:RESET_B 0.000227047
2 *1744:Y 0.000227047
3 *1799:RESET_B *339:26 5.50052e-05
4 *1799:RESET_B *478:23 6.74651e-05
*RES
1 *1744:Y *1799:RESET_B 22.6036 
*END

*D_NET *73 0.00041012
*CONN
*I *1800:RESET_B I *D sky130_fd_sc_hd__dfrtp_4
*I *1745:Y O *D sky130_fd_sc_hd__inv_2
*CAP
1 *1800:RESET_B 7.80877e-05
2 *1745:Y 7.80877e-05
3 *1800:RESET_B *1691:A0 7.70035e-05
4 *1800:RESET_B *477:12 0.000176941
*RES
1 *1745:Y *1800:RESET_B 20.55 
*END

*D_NET *74 0.000295626
*CONN
*I *1801:RESET_B I *D sky130_fd_sc_hd__dfrtp_4
*I *1746:Y O *D sky130_fd_sc_hd__inv_2
*CAP
1 *1801:RESET_B 0.000100266
2 *1746:Y 0.000100266
3 *1801:RESET_B *1636:S 5.71472e-05
4 *1801:RESET_B *390:53 3.79467e-05
5 *1801:RESET_B *479:12 0
*RES
1 *1746:Y *1801:RESET_B 20.175 
*END

*D_NET *75 0.000227112
*CONN
*I *1802:RESET_B I *D sky130_fd_sc_hd__dfrtp_4
*I *1747:Y O *D sky130_fd_sc_hd__inv_2
*CAP
1 *1802:RESET_B 8.45453e-05
2 *1747:Y 8.45453e-05
3 *1802:RESET_B *381:29 5.80217e-05
4 *1802:RESET_B *387:125 0
*RES
1 *1747:Y *1802:RESET_B 20.2464 
*END

*D_NET *76 0.000378663
*CONN
*I *1803:RESET_B I *D sky130_fd_sc_hd__dfrtp_4
*I *1748:Y O *D sky130_fd_sc_hd__inv_2
*CAP
1 *1803:RESET_B 5.33501e-05
2 *1748:Y 5.33501e-05
3 *1803:RESET_B *381:29 9.4736e-05
4 *1803:RESET_B *384:12 0.000177227
*RES
1 *1748:Y *1803:RESET_B 20.55 
*END

*D_NET *77 0.000369161
*CONN
*I *1804:RESET_B I *D sky130_fd_sc_hd__dfrtp_4
*I *1749:Y O *D sky130_fd_sc_hd__inv_2
*CAP
1 *1804:RESET_B 0.000137766
2 *1749:Y 0.000137766
3 *1804:RESET_B *1749:A 9.36295e-05
*RES
1 *1749:Y *1804:RESET_B 21.0857 
*END

*D_NET *78 0.000345297
*CONN
*I *1805:RESET_B I *D sky130_fd_sc_hd__dfrtp_4
*I *1750:Y O *D sky130_fd_sc_hd__inv_2
*CAP
1 *1805:RESET_B 0.000172649
2 *1750:Y 0.000172649
3 *1805:RESET_B *339:154 0
4 *1805:RESET_B *415:27 0
*RES
1 *1750:Y *1805:RESET_B 21.0857 
*END

*D_NET *79 0.000181941
*CONN
*I *1806:RESET_B I *D sky130_fd_sc_hd__dfrtp_1
*I *1751:Y O *D sky130_fd_sc_hd__inv_2
*CAP
1 *1806:RESET_B 6.59088e-05
2 *1751:Y 6.59088e-05
3 *1806:RESET_B *383:48 5.01234e-05
*RES
1 *1751:Y *1806:RESET_B 19.6393 
*END

*D_NET *80 0.000731566
*CONN
*I *1807:RESET_B I *D sky130_fd_sc_hd__dfrtp_1
*I *1753:Y O *D sky130_fd_sc_hd__inv_2
*CAP
1 *1807:RESET_B 0.000241847
2 *1753:Y 0.000241847
3 *1807:RESET_B *1807:D 4.57445e-05
4 *1807:RESET_B *1827:A 0
5 *1807:RESET_B *383:48 0
6 *1807:RESET_B *384:54 0.000202128
*RES
1 *1753:Y *1807:RESET_B 23.4607 
*END

*D_NET *81 0.000815762
*CONN
*I *1808:RESET_B I *D sky130_fd_sc_hd__dfrtp_1
*I *1754:Y O *D sky130_fd_sc_hd__inv_2
*CAP
1 *1808:RESET_B 0.000296979
2 *1754:Y 0.000296979
3 *1808:RESET_B *1857:A 0
4 *1808:RESET_B *383:48 7.66056e-05
5 *1808:RESET_B *468:21 0.000145197
*RES
1 *1754:Y *1808:RESET_B 24.4161 
*END

*D_NET *82 0.000184647
*CONN
*I *1809:RESET_B I *D sky130_fd_sc_hd__dfrtp_2
*I *1755:Y O *D sky130_fd_sc_hd__inv_2
*CAP
1 *1809:RESET_B 7.58618e-05
2 *1755:Y 7.58618e-05
3 *1809:RESET_B *1833:A 3.2923e-05
*RES
1 *1755:Y *1809:RESET_B 19.6393 
*END

*D_NET *83 0.000372425
*CONN
*I *1810:RESET_B I *D sky130_fd_sc_hd__dfrtp_2
*I *1756:Y O *D sky130_fd_sc_hd__inv_2
*CAP
1 *1810:RESET_B 0.000138364
2 *1756:Y 0.000138364
3 *1810:RESET_B *1810:D 0
4 *1810:RESET_B *359:20 9.56968e-05
5 *1810:RESET_B *388:122 0
*RES
1 *1756:Y *1810:RESET_B 21.0857 
*END

*D_NET *84 0.000761247
*CONN
*I *1811:RESET_B I *D sky130_fd_sc_hd__dfrtp_2
*I *1757:Y O *D sky130_fd_sc_hd__inv_2
*CAP
1 *1811:RESET_B 0.000304644
2 *1757:Y 0.000304644
3 *1811:RESET_B *1600:A1 5.49995e-05
4 *1811:RESET_B *1811:D 0
5 *1811:RESET_B *388:74 4.83905e-05
6 *1811:RESET_B *388:94 0
7 *1811:RESET_B *471:12 0
8 *1811:RESET_B *471:18 4.85695e-05
*RES
1 *1757:Y *1811:RESET_B 23.6839 
*END

*D_NET *85 0.000490483
*CONN
*I *1812:RESET_B I *D sky130_fd_sc_hd__dfrtp_2
*I *1758:Y O *D sky130_fd_sc_hd__inv_2
*CAP
1 *1812:RESET_B 0.000148357
2 *1758:Y 0.000148357
3 *1812:RESET_B *1595:A1 2.74795e-05
4 *1812:RESET_B *1668:A3 1.431e-05
5 *1812:RESET_B *163:124 0
6 *1812:RESET_B *256:59 0.000151979
*RES
1 *1758:Y *1812:RESET_B 21.2554 
*END

*D_NET *86 0.000719446
*CONN
*I *1813:RESET_B I *D sky130_fd_sc_hd__dfrtp_4
*I *1759:Y O *D sky130_fd_sc_hd__inv_2
*CAP
1 *1813:RESET_B 0.000120904
2 *1759:Y 0.000120904
3 *1813:RESET_B *303:145 0.000148841
4 *1813:RESET_B *360:164 0.000176226
5 *1813:RESET_B *383:25 5.54506e-05
6 *1813:RESET_B *389:36 9.71197e-05
*RES
1 *1759:Y *1813:RESET_B 22.7107 
*END

*D_NET *87 0.000264861
*CONN
*I *1814:RESET_B I *D sky130_fd_sc_hd__dfrtp_4
*I *1760:Y O *D sky130_fd_sc_hd__inv_2
*CAP
1 *1814:RESET_B 3.54027e-05
2 *1760:Y 3.54027e-05
3 *1814:RESET_B *1814:D 7.83587e-05
4 *1814:RESET_B *383:12 0.000102545
5 *1814:RESET_B *391:18 1.31516e-05
*RES
1 *1760:Y *1814:RESET_B 19.6393 
*END

*D_NET *88 0.000354841
*CONN
*I *1815:RESET_B I *D sky130_fd_sc_hd__dfrtp_4
*I *1761:Y O *D sky130_fd_sc_hd__inv_2
*CAP
1 *1815:RESET_B 8.88037e-05
2 *1761:Y 8.88037e-05
3 *1815:RESET_B *391:12 0.000177234
*RES
1 *1761:Y *1815:RESET_B 20.55 
*END

*D_NET *89 0.00021997
*CONN
*I *1816:RESET_B I *D sky130_fd_sc_hd__dfrtp_2
*I *1762:Y O *D sky130_fd_sc_hd__inv_2
*CAP
1 *1816:RESET_B 5.93961e-05
2 *1762:Y 5.93961e-05
3 *1816:RESET_B *1659:A1 0.000101178
*RES
1 *1762:Y *1816:RESET_B 19.6393 
*END

*D_NET *90 0.000826072
*CONN
*I *1817:RESET_B I *D sky130_fd_sc_hd__dfrtp_2
*I *1763:Y O *D sky130_fd_sc_hd__inv_2
*CAP
1 *1817:RESET_B 9.71865e-05
2 *1763:Y 9.71865e-05
3 *1817:RESET_B *1514:B 5.31167e-05
4 *1817:RESET_B *1552:B 8.74791e-05
5 *1817:RESET_B *380:67 0.000436098
6 *1817:RESET_B *380:69 5.50052e-05
*RES
1 *1763:Y *1817:RESET_B 13.4696 
*END

*D_NET *91 0.000369574
*CONN
*I *1818:RESET_B I *D sky130_fd_sc_hd__dfrtp_1
*I *1764:Y O *D sky130_fd_sc_hd__inv_2
*CAP
1 *1818:RESET_B 9.41968e-05
2 *1764:Y 9.41968e-05
3 *1818:RESET_B *1560:A1 2.74795e-05
4 *1818:RESET_B *1764:A 0.000153701
5 *1818:RESET_B *460:10 0
*RES
1 *1764:Y *1818:RESET_B 20.7196 
*END

*D_NET *92 0.000838091
*CONN
*I *1819:RESET_B I *D sky130_fd_sc_hd__dfrtp_1
*I *1765:Y O *D sky130_fd_sc_hd__inv_2
*CAP
1 *1819:RESET_B 0.00034593
2 *1765:Y 0.00034593
3 *1819:RESET_B *1518:A 6.14505e-05
4 *1819:RESET_B *1847:A 5.65955e-05
5 *1819:RESET_B *390:139 2.81849e-05
*RES
1 *1765:Y *1819:RESET_B 15.5411 
*END

*D_NET *93 0.000414384
*CONN
*I *1820:RESET_B I *D sky130_fd_sc_hd__dfrtp_2
*I *1766:Y O *D sky130_fd_sc_hd__inv_2
*CAP
1 *1820:RESET_B 0.000174514
2 *1766:Y 0.000174514
3 *1820:RESET_B *1534:A3 6.53558e-05
*RES
1 *1766:Y *1820:RESET_B 21.4339 
*END

*D_NET *94 0.00122491
*CONN
*I *1767:D I *D sky130_fd_sc_hd__dfrtp_1
*I *1705:X O *D sky130_fd_sc_hd__a21bo_1
*CAP
1 *1767:D 0.000438494
2 *1705:X 0.000438494
3 *1767:D *1604:A2 0
4 *1767:D *1705:B1_N 0.000312215
5 *1767:D *321:23 3.5707e-05
*RES
1 *1705:X *1767:D 33.5821 
*END

*D_NET *95 0.000613248
*CONN
*I *1768:D I *D sky130_fd_sc_hd__dfrtp_1
*I *1704:Y O *D sky130_fd_sc_hd__o21ai_1
*CAP
1 *1768:D 0.000178464
2 *1704:Y 0.000178464
3 *1768:D *1705:B1_N 0.000128161
4 *1768:D *381:110 0.000128161
*RES
1 *1704:Y *1768:D 31.4214 
*END

*D_NET *96 0.000722131
*CONN
*I *1769:D I *D sky130_fd_sc_hd__dfrtp_1
*I *1702:Y O *D sky130_fd_sc_hd__nand2_1
*CAP
1 *1769:D 0.000233645
2 *1702:Y 0.000233645
3 *1769:D *1662:A 2.59355e-05
4 *1769:D *1662:B 1.0484e-05
5 *1769:D *422:14 0.000141015
6 *1769:D *497:8 7.74068e-05
*RES
1 *1702:Y *1769:D 31.3679 
*END

*D_NET *97 0.000792044
*CONN
*I *1770:D I *D sky130_fd_sc_hd__dfrtp_1
*I *1699:Y O *D sky130_fd_sc_hd__o21ai_1
*CAP
1 *1770:D 0.000200316
2 *1699:Y 0.000200316
3 *1770:D *1698:A1 8.25843e-06
4 *1770:D *1699:B1 0.000185203
5 *1770:D *358:14 0.000128154
6 *1770:D *359:20 6.97972e-05
*RES
1 *1699:Y *1770:D 31.4214 
*END

*D_NET *98 0.000335717
*CONN
*I *1772:D I *D sky130_fd_sc_hd__dfrtp_4
*I *1696:X O *D sky130_fd_sc_hd__a22o_1
*CAP
1 *1772:D 5.93042e-05
2 *1696:X 5.93042e-05
3 *1772:D *339:20 2.90582e-05
4 *1772:D *359:20 0.000101178
5 *1772:D *388:152 5.50052e-05
6 *1772:D *470:12 3.18676e-05
*RES
1 *1696:X *1772:D 29.475 
*END

*D_NET *99 0.000696294
*CONN
*I *1773:D I *D sky130_fd_sc_hd__dfrtp_1
*I *1695:X O *D sky130_fd_sc_hd__o21a_1
*CAP
1 *1773:D 0.000255911
2 *1695:X 0.000255911
3 *1773:D *1695:A2 2.85586e-05
4 *1773:D *1695:B1 0.000100684
5 *1773:D *1773:CLK 5.52302e-05
*RES
1 *1695:X *1773:D 22.8321 
*END

*D_NET *100 0.000427834
*CONN
*I *1774:D I *D sky130_fd_sc_hd__dfrtp_1
*I *1694:X O *D sky130_fd_sc_hd__clkbuf_1
*CAP
1 *1774:D 0.000189925
2 *1694:X 0.000189925
3 *1774:D *1774:CLK 4.79842e-05
4 *1774:D *404:14 0
*RES
1 *1694:X *1774:D 30.6 
*END

*D_NET *101 0.000438074
*CONN
*I *1775:D I *D sky130_fd_sc_hd__dfrtp_1
*I *1692:X O *D sky130_fd_sc_hd__clkbuf_1
*CAP
1 *1775:D 0.000219037
2 *1692:X 0.000219037
3 *1775:D *381:29 0
4 *1775:D *489:18 0
*RES
1 *1692:X *1775:D 30.6 
*END

*D_NET *102 0.000613196
*CONN
*I *1776:D I *D sky130_fd_sc_hd__dfrtp_1
*I *1690:X O *D sky130_fd_sc_hd__clkbuf_1
*CAP
1 *1776:D 0.000215262
2 *1690:X 0.000215262
3 *1776:D *1690:A 0.000110409
4 *1776:D *1776:CLK 7.22626e-05
*RES
1 *1690:X *1776:D 22.4393 
*END

*D_NET *103 0.000619842
*CONN
*I *1777:D I *D sky130_fd_sc_hd__dfrtp_1
*I *1688:X O *D sky130_fd_sc_hd__clkbuf_1
*CAP
1 *1777:D 0.000217935
2 *1688:X 0.000217935
3 *1777:D *487:43 0.000183972
4 *1777:RESET_B *1777:D 0
*RES
1 *1688:X *1777:D 30.7071 
*END

*D_NET *104 0.000543329
*CONN
*I *1778:D I *D sky130_fd_sc_hd__dfrtp_1
*I *1686:X O *D sky130_fd_sc_hd__clkbuf_1
*CAP
1 *1778:D 0.000225445
2 *1686:X 0.000225445
3 *1778:D *404:14 9.24395e-05
*RES
1 *1686:X *1778:D 31.2071 
*END

*D_NET *105 0.000304107
*CONN
*I *1779:D I *D sky130_fd_sc_hd__dfrtp_1
*I *1684:X O *D sky130_fd_sc_hd__clkbuf_1
*CAP
1 *1779:D 9.01183e-05
2 *1684:X 9.01183e-05
3 *1779:D *1684:A 3.75959e-05
4 *1779:D *1779:CLK 8.86129e-06
5 *1779:D *388:105 7.74135e-05
*RES
1 *1684:X *1779:D 29.2295 
*END

*D_NET *106 0.000448164
*CONN
*I *1780:D I *D sky130_fd_sc_hd__dfrtp_1
*I *1682:X O *D sky130_fd_sc_hd__clkbuf_1
*CAP
1 *1780:D 0.000188977
2 *1682:X 0.000188977
3 *1780:D *1659:A1 6.65192e-05
4 *1780:D *360:168 3.69047e-06
*RES
1 *1682:X *1780:D 31.0107 
*END

*D_NET *107 0.000393533
*CONN
*I *1781:D I *D sky130_fd_sc_hd__dfrtp_1
*I *1680:X O *D sky130_fd_sc_hd__clkbuf_1
*CAP
1 *1781:D 0.000174867
2 *1680:X 0.000174867
3 *1781:D *1781:CLK 4.37999e-05
*RES
1 *1680:X *1781:D 21.6179 
*END

*D_NET *108 0.000415019
*CONN
*I *1782:D I *D sky130_fd_sc_hd__dfrtp_1
*I *1678:X O *D sky130_fd_sc_hd__clkbuf_1
*CAP
1 *1782:D 8.99111e-05
2 *1678:X 8.99111e-05
3 *1782:D *1678:A 1.74352e-05
4 *1782:D *1782:CLK 5.62995e-05
5 *1782:D *486:18 7.43578e-06
6 *1782:D *487:53 0.000154027
*RES
1 *1678:X *1782:D 21.6179 
*END

*D_NET *109 0.000491053
*CONN
*I *1783:D I *D sky130_fd_sc_hd__dfrtp_1
*I *1676:X O *D sky130_fd_sc_hd__clkbuf_1
*CAP
1 *1783:D 0.000217257
2 *1676:X 0.000217257
3 *1783:D *387:140 3.9733e-05
4 *1783:D *387:155 1.6806e-05
*RES
1 *1676:X *1783:D 30.7071 
*END

*D_NET *110 0.00119819
*CONN
*I *1784:D I *D sky130_fd_sc_hd__dfrtp_1
*I *1674:X O *D sky130_fd_sc_hd__a2bb2o_1
*CAP
1 *1784:D 0.000560996
2 *1674:X 0.000560996
3 *1784:D *1727:A 7.61932e-05
4 *1784:D *384:12 0
5 *1784:D *404:14 0
6 *1873:A *1784:D 0
*RES
1 *1674:X *1784:D 35.5286 
*END

*D_NET *111 0.000891192
*CONN
*I *1785:D I *D sky130_fd_sc_hd__dfrtp_1
*I *1673:X O *D sky130_fd_sc_hd__clkbuf_1
*CAP
1 *1785:D 0.000246624
2 *1673:X 0.000246624
3 *1785:D *1672:A0 0
4 *1785:D *1672:S 3.48705e-05
5 *1785:D *1673:A 3.18676e-05
6 *1785:D *1787:CLK 5.03772e-05
7 *1785:D *1850:A 1.59145e-05
8 *1785:D *1883:A 0.000140933
9 *1785:D *388:80 6.87574e-05
10 *1785:D *407:6 5.52238e-05
*RES
1 *1673:X *1785:D 32.475 
*END

*D_NET *112 0.000444394
*CONN
*I *1786:D I *D sky130_fd_sc_hd__dfrtp_1
*I *1671:X O *D sky130_fd_sc_hd__a22o_1
*CAP
1 *1786:D 0.000130748
2 *1671:X 0.000130748
3 *1786:D *1636:A0 0.000127939
4 *1786:D *1671:A2 5.4959e-05
*RES
1 *1671:X *1786:D 30.1893 
*END

*D_NET *113 0.000810194
*CONN
*I *1787:D I *D sky130_fd_sc_hd__dfrtp_1
*I *1670:X O *D sky130_fd_sc_hd__clkbuf_1
*CAP
1 *1787:D 0.000301285
2 *1670:X 0.000301285
3 *1787:D *1677:A0 4.85049e-06
4 *1787:D *1677:A1 7.70035e-05
5 *1787:D *1731:A 5.28768e-05
6 *1787:D *1787:CLK 7.28929e-05
*RES
1 *1670:X *1787:D 31.9616 
*END

*D_NET *114 0.000675443
*CONN
*I *1788:D I *D sky130_fd_sc_hd__dfrtp_2
*I *1668:X O *D sky130_fd_sc_hd__a32o_1
*CAP
1 *1788:D 0.000267485
2 *1668:X 0.000267485
3 *1788:D *1594:A2 0
4 *1788:D *1594:A3 5.10822e-05
5 *1788:D *162:22 1.36589e-05
6 *1788:D *390:25 7.57312e-05
*RES
1 *1668:X *1788:D 31.6536 
*END

*D_NET *115 0.000661447
*CONN
*I *1789:D I *D sky130_fd_sc_hd__dfrtp_1
*I *1667:Y O *D sky130_fd_sc_hd__o21ai_1
*CAP
1 *1789:D 0.000266925
2 *1667:Y 0.000266925
3 *1789:D *360:132 9.62302e-05
4 *1789:D *481:37 3.1367e-05
*RES
1 *1667:Y *1789:D 32.975 
*END

*D_NET *116 0.00147522
*CONN
*I *1790:D I *D sky130_fd_sc_hd__dfrtp_1
*I *1661:X O *D sky130_fd_sc_hd__a31o_1
*CAP
1 *1790:D 0.000274935
2 *1661:X 0.000274935
3 *1790:D *1553:A 7.6644e-05
4 *1790:D *1742:A 0.000157687
5 *1790:D *238:10 0.000449896
6 *1790:D *361:42 9.7659e-05
7 *1790:D *383:156 0.00014011
8 *1790:D *486:70 3.35685e-06
*RES
1 *1661:X *1790:D 35.6893 
*END

*D_NET *117 0.000983741
*CONN
*I *1791:D I *D sky130_fd_sc_hd__dfrtp_1
*I *1659:X O *D sky130_fd_sc_hd__a31o_1
*CAP
1 *1791:D 0.000405788
2 *1659:X 0.000405788
3 *1791:D *1791:CLK 0.000144224
4 *1791:D *485:8 2.79421e-05
*RES
1 *1659:X *1791:D 25.7071 
*END

*D_NET *118 0.00102941
*CONN
*I *1792:D I *D sky130_fd_sc_hd__dfrtp_1
*I *1657:X O *D sky130_fd_sc_hd__a31o_1
*CAP
1 *1792:D 0.000333494
2 *1657:X 0.000333494
3 *1792:D *1649:B1 1.39841e-05
4 *1792:D *1656:A2 3.55636e-05
5 *1792:D *1657:A3 5.52238e-05
6 *1792:D *266:51 2.07382e-05
7 *1792:D *303:63 5.52302e-05
8 *1792:D *383:99 0.000122091
9 *1792:D *486:35 5.95932e-05
*RES
1 *1657:X *1792:D 33.6 
*END

*D_NET *119 0.000453435
*CONN
*I *1793:D I *D sky130_fd_sc_hd__dfrtp_1
*I *1655:X O *D sky130_fd_sc_hd__a31o_1
*CAP
1 *1793:D 0.000137759
2 *1655:X 0.000137759
3 *1793:D *1651:A3 4.24297e-05
4 *1793:D *1651:B1 0
5 *1793:D *1655:A3 5.13561e-05
6 *1793:D *303:73 2.89016e-05
7 *1793:D *387:52 5.52302e-05
*RES
1 *1655:X *1793:D 30.3143 
*END

*D_NET *120 0.000354613
*CONN
*I *1794:D I *D sky130_fd_sc_hd__dfrtp_1
*I *1653:X O *D sky130_fd_sc_hd__a31o_1
*CAP
1 *1794:D 0.000129283
2 *1653:X 0.000129283
3 *1794:D *1777:CLK 3.69697e-05
4 *1794:D *303:73 3.18676e-05
5 *1794:D *383:86 0
6 *1794:D *387:29 1.76616e-05
7 *1794:D *488:16 9.54798e-06
*RES
1 *1653:X *1794:D 29.7786 
*END

*D_NET *121 0.000756807
*CONN
*I *1795:D I *D sky130_fd_sc_hd__dfrtp_1
*I *1651:X O *D sky130_fd_sc_hd__a31o_1
*CAP
1 *1795:D 0.000224353
2 *1651:X 0.000224353
3 *1795:D *1793:CLK 0.000174313
4 *1795:D *360:24 3.21968e-05
5 *1795:D *360:113 5.54204e-05
6 *1795:D *387:76 4.61703e-05
*RES
1 *1651:X *1795:D 31.4214 
*END

*D_NET *122 0.000373211
*CONN
*I *1796:D I *D sky130_fd_sc_hd__dfrtp_1
*I *1649:X O *D sky130_fd_sc_hd__a31o_1
*CAP
1 *1796:D 0.000109275
2 *1649:X 0.000109275
3 *1796:D *338:32 5.50052e-05
4 *1796:D *486:35 9.96553e-05
*RES
1 *1649:X *1796:D 29.475 
*END

*D_NET *123 0.000621115
*CONN
*I *1797:D I *D sky130_fd_sc_hd__dfrtp_2
*I *1647:X O *D sky130_fd_sc_hd__a221o_1
*CAP
1 *1797:D 0.000146002
2 *1647:X 0.000146002
3 *1797:D *1790:CLK 0.000125724
4 *1797:D *153:41 2.00751e-05
5 *1797:D *163:22 3.25078e-05
6 *1797:D *473:8 0.000141554
7 *1797:D *491:61 9.25014e-06
*RES
1 *1647:X *1797:D 30.6 
*END

*D_NET *124 0.000462682
*CONN
*I *1798:D I *D sky130_fd_sc_hd__dfrtp_4
*I *1643:X O *D sky130_fd_sc_hd__clkbuf_1
*CAP
1 *1798:D 0.000134154
2 *1643:X 0.000134154
3 *1798:D *382:72 8.00806e-05
4 *1798:D *384:43 8.00806e-05
5 *1798:D *387:115 3.42135e-05
*RES
1 *1643:X *1798:D 30.4214 
*END

*D_NET *125 0.000728105
*CONN
*I *1799:D I *D sky130_fd_sc_hd__dfrtp_2
*I *1641:X O *D sky130_fd_sc_hd__clkbuf_1
*CAP
1 *1799:D 0.00020485
2 *1641:X 0.00020485
3 *1799:D *259:135 1.16543e-05
4 *1799:D *477:12 0.000201854
5 *1799:D *478:23 0.000104896
*RES
1 *1641:X *1799:D 32.725 
*END

*D_NET *126 0.00116429
*CONN
*I *1800:D I *D sky130_fd_sc_hd__dfrtp_4
*I *1639:X O *D sky130_fd_sc_hd__clkbuf_1
*CAP
1 *1800:D 0.000230498
2 *1639:X 0.000230498
3 *1800:D *1638:A0 8.0347e-05
4 *1800:D *1638:A1 0.000226069
5 *1800:D *1639:A 9.66977e-05
6 *1800:D *1691:A0 3.36227e-05
7 *1800:D *1799:CLK 7.24799e-05
8 *1800:D *259:135 9.73768e-05
9 *1800:D *387:29 9.66977e-05
*RES
1 *1639:X *1800:D 34.225 
*END

*D_NET *127 0.000512426
*CONN
*I *1801:D I *D sky130_fd_sc_hd__dfrtp_4
*I *1637:X O *D sky130_fd_sc_hd__clkbuf_1
*CAP
1 *1801:D 0.000170929
2 *1637:X 0.000170929
3 *1801:D *256:59 5.90666e-05
4 *1801:D *390:42 4.27437e-05
5 *1801:D *390:53 6.87574e-05
*RES
1 *1637:X *1801:D 21.6179 
*END

*D_NET *128 0.000492216
*CONN
*I *1802:D I *D sky130_fd_sc_hd__dfrtp_4
*I *1635:X O *D sky130_fd_sc_hd__clkbuf_1
*CAP
1 *1802:D 0.000179353
2 *1635:X 0.000179353
3 *1802:D *1634:A0 5.39166e-06
4 *1802:D *1775:CLK 3.17067e-05
5 *1802:D *387:125 2.89114e-05
6 *1802:D *387:140 6.75007e-05
*RES
1 *1635:X *1802:D 30.9214 
*END

*D_NET *129 0.000240722
*CONN
*I *1803:D I *D sky130_fd_sc_hd__dfrtp_4
*I *1633:X O *D sky130_fd_sc_hd__clkbuf_1
*CAP
1 *1803:D 7.63447e-05
2 *1633:X 7.63447e-05
3 *1803:D *1632:A0 0
4 *1803:D *1633:A 8.39e-05
5 *1803:D *1803:CLK 4.1331e-06
*RES
1 *1633:X *1803:D 29.5464 
*END

*D_NET *130 0.000540906
*CONN
*I *1804:D I *D sky130_fd_sc_hd__dfrtp_4
*I *1631:X O *D sky130_fd_sc_hd__clkbuf_1
*CAP
1 *1804:D 0.000244867
2 *1631:X 0.000244867
3 *1804:D *1749:A 5.11714e-05
*RES
1 *1631:X *1804:D 32.1357 
*END

*D_NET *131 0.000741221
*CONN
*I *1805:D I *D sky130_fd_sc_hd__dfrtp_4
*I *1629:X O *D sky130_fd_sc_hd__clkbuf_1
*CAP
1 *1805:D 0.000172895
2 *1629:X 0.000172895
3 *1805:D *1628:S 6.91157e-05
4 *1805:D *1636:S 9.41805e-05
5 *1805:D *339:154 8.15095e-05
6 *1805:D *381:90 0.000150625
*RES
1 *1629:X *1805:D 32.1357 
*END

*D_NET *132 0.00171325
*CONN
*I *1806:D I *D sky130_fd_sc_hd__dfrtp_1
*I *1626:X O *D sky130_fd_sc_hd__a22o_1
*CAP
1 *1806:D 0.000548935
2 *1626:X 0.000548935
3 *1806:D *1626:A1 7.74068e-05
4 *1806:D *1691:A0 0.000335847
5 *1806:D *1832:A 5.50052e-05
6 *1806:D *314:40 7.48554e-05
7 *1806:D *461:14 7.22686e-05
*RES
1 *1626:X *1806:D 39.1179 
*END

*D_NET *133 0.00246168
*CONN
*I *1807:D I *D sky130_fd_sc_hd__dfrtp_1
*I *1621:X O *D sky130_fd_sc_hd__a22o_1
*CAP
1 *1807:D 0.000978945
2 *1621:X 0.000978945
3 *1807:D *1621:A1 6.62868e-05
4 *1807:D *1621:A2 9.80173e-05
5 *1807:D *1827:A 0.000221013
6 *1807:D *383:48 0
7 *1807:D *387:93 7.27282e-05
8 *1807:RESET_B *1807:D 4.57445e-05
*RES
1 *1621:X *1807:D 44.4571 
*END

*D_NET *134 0.00121125
*CONN
*I *1808:D I *D sky130_fd_sc_hd__dfrtp_1
*I *1617:X O *D sky130_fd_sc_hd__a21bo_1
*CAP
1 *1808:D 0.000528743
2 *1617:X 0.000528743
3 *1808:D *1617:A1 6.57032e-05
4 *1808:D *1617:B1_N 3.06878e-06
5 *1808:D *1675:A1 1.83053e-05
6 *1808:D *360:132 6.66813e-05
*RES
1 *1617:X *1808:D 34.2964 
*END

*D_NET *135 0.00197913
*CONN
*I *1809:D I *D sky130_fd_sc_hd__dfrtp_2
*I *1610:X O *D sky130_fd_sc_hd__a22o_1
*CAP
1 *1809:D 0.000731472
2 *1610:X 0.000731472
3 *1809:D *1600:B2 0.000182728
4 *1809:D *1683:A0 3.54498e-05
5 *1809:D *1833:A 2.84026e-05
6 *1809:D *163:61 0.000203231
7 *1809:D *388:18 2.26917e-05
8 *1809:D *388:65 4.36809e-05
*RES
1 *1610:X *1809:D 38.1893 
*END

*D_NET *136 0.00043358
*CONN
*I *1810:D I *D sky130_fd_sc_hd__dfrtp_2
*I *1605:X O *D sky130_fd_sc_hd__a21o_1
*CAP
1 *1810:D 0.000136856
2 *1605:X 0.000136856
3 *1810:D *359:20 0
4 *1810:D *388:122 5.83233e-05
5 *1810:D *388:139 0.000101545
6 *1810:RESET_B *1810:D 0
*RES
1 *1605:X *1810:D 30.0821 
*END

*D_NET *137 0.000785884
*CONN
*I *1811:D I *D sky130_fd_sc_hd__dfrtp_2
*I *1600:X O *D sky130_fd_sc_hd__a22o_1
*CAP
1 *1811:D 0.000292849
2 *1600:X 0.000292849
3 *1811:D *1600:A1 5.50052e-05
4 *1811:D *1669:A0 0.000116658
5 *1811:D *388:74 2.85234e-05
6 *1811:D *471:18 0
7 *1811:RESET_B *1811:D 0
*RES
1 *1600:X *1811:D 33.35 
*END

*D_NET *138 0.000370677
*CONN
*I *1812:D I *D sky130_fd_sc_hd__dfrtp_2
*I *1595:X O *D sky130_fd_sc_hd__a22o_1
*CAP
1 *1812:D 6.43446e-05
2 *1595:X 6.43446e-05
3 *1812:D *1595:A1 4.13811e-05
4 *1812:D *1812:CLK 5.66971e-05
5 *1812:D *385:100 0.00014391
*RES
1 *1595:X *1812:D 20.9214 
*END

*D_NET *139 0.000555709
*CONN
*I *1813:D I *D sky130_fd_sc_hd__dfrtp_4
*I *1587:X O *D sky130_fd_sc_hd__a2bb2o_1
*CAP
1 *1813:D 0.000169334
2 *1587:X 0.000169334
3 *1813:D *1667:A2 0.000141555
4 *1813:D *1674:A1_N 7.54868e-05
*RES
1 *1587:X *1813:D 30.2964 
*END

*D_NET *140 0.00129828
*CONN
*I *1814:D I *D sky130_fd_sc_hd__dfrtp_4
*I *1583:Y O *D sky130_fd_sc_hd__o2bb2ai_1
*CAP
1 *1814:D 0.000496815
2 *1583:Y 0.000496815
3 *1814:D *1583:A1_N 0.000139907
4 *1814:D *1693:A0 3.69047e-06
5 *1814:D *389:90 6.05161e-06
6 *1814:D *391:18 7.6644e-05
7 *1814:RESET_B *1814:D 7.83587e-05
*RES
1 *1583:Y *1814:D 34.3679 
*END

*D_NET *141 0.00184132
*CONN
*I *1815:D I *D sky130_fd_sc_hd__dfrtp_4
*I *1576:X O *D sky130_fd_sc_hd__a22o_1
*CAP
1 *1815:D 0.000811876
2 *1576:X 0.000811876
3 *1815:D *1576:B1 0.000182694
4 *1815:D *1576:B2 3.48705e-05
*RES
1 *1576:X *1815:D 31.6 
*END

*D_NET *142 0.00238993
*CONN
*I *1816:D I *D sky130_fd_sc_hd__dfrtp_2
*I *1572:Y O *D sky130_fd_sc_hd__nand2_1
*CAP
1 *1816:D 0.00106972
2 *1572:Y 0.00106972
3 *1816:D *1514:A 3.08382e-06
4 *1816:D *1571:A 1.21258e-05
5 *1816:D *1571:B 8.6595e-06
6 *1816:D *1572:A 4.93118e-06
7 *1816:D *1572:B 3.11088e-05
8 *1816:D *1780:CLK 2.11336e-05
9 *1816:D *462:8 9.57995e-05
10 *1816:D *462:19 7.36469e-05
*RES
1 *1572:Y *1816:D 31.9036 
*END

*D_NET *143 0.00113537
*CONN
*I *1817:D I *D sky130_fd_sc_hd__dfrtp_2
*I *1561:X O *D sky130_fd_sc_hd__a22o_1
*CAP
1 *1817:D 0.000316643
2 *1561:X 0.000316643
3 *1817:D *1514:B 0.000191028
4 *1817:D *1560:A1 9.14171e-05
5 *1817:D *1560:A3 3.75868e-05
6 *1817:D *1560:B1 1.35554e-05
7 *1817:D *1841:A 0
8 *1817:D *149:118 4.13617e-05
9 *1817:D *380:67 0.000127133
*RES
1 *1561:X *1817:D 35.0821 
*END

*D_NET *144 0.000891025
*CONN
*I *1818:D I *D sky130_fd_sc_hd__dfrtp_1
*I *1552:Y O *D sky130_fd_sc_hd__nand2_1
*CAP
1 *1818:D 0.000313508
2 *1552:Y 0.000313508
3 *1818:D *1552:A 7.80824e-05
4 *1818:D *1560:A1 0.000113045
5 *1818:D *1724:A 0
6 *1818:D *1764:A 5.33436e-05
7 *1818:D *463:8 1.95368e-05
*RES
1 *1552:Y *1818:D 34.0643 
*END

*D_NET *145 0.000566023
*CONN
*I *1819:D I *D sky130_fd_sc_hd__dfrtp_1
*I *1542:Y O *D sky130_fd_sc_hd__o2bb2ai_1
*CAP
1 *1819:D 0.000272445
2 *1542:Y 0.000272445
3 *1819:D *1518:A 0
4 *1819:D *161:86 2.11336e-05
*RES
1 *1542:Y *1819:D 32.2071 
*END

*D_NET *146 0.000866279
*CONN
*I *1820:D I *D sky130_fd_sc_hd__dfrtp_2
*I *1532:X O *D sky130_fd_sc_hd__a2bb2o_1
*CAP
1 *1820:D 0.00025014
2 *1532:X 0.00025014
3 *1820:D *1534:A3 2.84109e-05
4 *1820:D *153:117 5.52302e-05
5 *1820:D *398:12 0.000282359
6 *1820:D *466:57 0
*RES
1 *1532:X *1820:D 32.4393 
*END

*D_NET *147 0.000845307
*CONN
*I *1421:A I *D sky130_fd_sc_hd__clkbuf_4
*I *1491:A2 I *D sky130_fd_sc_hd__o21bai_1
*I *1420:X O *D sky130_fd_sc_hd__and2b_1
*CAP
1 *1421:A 0
2 *1491:A2 0.000210487
3 *1420:X 0.000176521
4 *147:14 0.000387008
5 *1491:A2 *218:8 3.57366e-05
6 *1491:A2 *477:23 3.55552e-05
7 *147:14 *477:23 0
8 *147:14 *492:66 0
*RES
1 *1420:X *147:14 21.1214 
2 *147:14 *1491:A2 12.7286 
3 *147:14 *1421:A 9.3 
*END

*D_NET *148 0.0136247
*CONN
*I *1451:B1 I *D sky130_fd_sc_hd__a21oi_2
*I *1453:A2 I *D sky130_fd_sc_hd__o21bai_1
*I *1422:A I *D sky130_fd_sc_hd__clkbuf_4
*I *1496:C1 I *D sky130_fd_sc_hd__a211o_1
*I *1484:A1 I *D sky130_fd_sc_hd__o21ai_1
*I *1480:A1 I *D sky130_fd_sc_hd__o21ai_1
*I *1618:A1 I *D sky130_fd_sc_hd__o22a_1
*I *1537:A I *D sky130_fd_sc_hd__nor2_4
*I *1623:B2 I *D sky130_fd_sc_hd__o32a_1
*I *1506:C1 I *D sky130_fd_sc_hd__a211o_1
*I *1421:X O *D sky130_fd_sc_hd__clkbuf_4
*CAP
1 *1451:B1 0
2 *1453:A2 0.000312529
3 *1422:A 0
4 *1496:C1 0.000230775
5 *1484:A1 0
6 *1480:A1 0
7 *1618:A1 0
8 *1537:A 0.000445775
9 *1623:B2 0.000332052
10 *1506:C1 0
11 *1421:X 0.000681656
12 *148:51 0.000843947
13 *148:45 0.00043543
14 *148:43 0.000419438
15 *148:41 0.000216794
16 *148:39 0.000634975
17 *148:35 0.000443912
18 *148:26 0.000377796
19 *148:20 0.000516298
20 *148:16 0.000714008
21 *1453:A2 *1456:A1 0.000155019
22 *1453:A2 *1458:A2 8.61344e-05
23 *1453:A2 *1461:C 4.16984e-05
24 *1453:A2 *1505:A1 3.08664e-05
25 *1453:A2 *1505:A2 2.84026e-05
26 *1453:A2 *1505:B1 2.84109e-05
27 *1453:A2 *1507:A 2.61551e-05
28 *1453:A2 *1609:A2 1.24368e-05
29 *1453:A2 *178:12 0.000421742
30 *1453:A2 *181:53 1.20417e-05
31 *1453:A2 *480:75 0.000169064
32 *1496:C1 *1481:B1 0.00012952
33 *1496:C1 *1496:B1 3.27019e-05
34 *1496:C1 *1498:A 0.000303396
35 *1496:C1 *1498:B 6.04182e-05
36 *1496:C1 *469:47 0.000303396
37 *1496:C1 *479:41 4.35597e-05
38 *1537:A *1495:B1 9.41642e-05
39 *1537:A *1619:C1 4.18895e-05
40 *1537:A *263:92 5.95827e-05
41 *1623:B2 *1619:C1 0.000136958
42 *1623:B2 *1623:B1 0.000444245
43 *1623:B2 *149:43 0.000240221
44 *148:16 *1420:B 0
45 *148:16 *1444:A2 7.36934e-05
46 *148:16 *1451:A1 0.000135028
47 *148:16 *1461:C 2.28598e-05
48 *148:16 *170:25 7.50601e-05
49 *148:16 *170:31 0.00016884
50 *148:16 *170:50 0
51 *148:16 *178:12 2.14757e-05
52 *148:16 *254:33 6.8646e-06
53 *148:16 *266:28 0.00030394
54 *148:16 *492:66 0.000119203
55 *148:20 *1461:C 1.39726e-05
56 *148:20 *178:12 6.75704e-05
57 *148:26 *1429:B 9.54798e-06
58 *148:26 *166:71 7.25296e-05
59 *148:26 *166:73 2.84398e-05
60 *148:26 *480:94 0.000241723
61 *148:26 *492:44 0.000431178
62 *148:35 *1424:A 0.000473097
63 *148:35 *1506:A1 5.33005e-05
64 *148:35 *1506:A2 0.000137639
65 *148:35 *1507:C 5.36e-05
66 *148:35 *469:37 6.96374e-05
67 *148:39 *149:20 1.10868e-05
68 *148:39 *469:37 0.000267926
69 *148:41 *1486:B 7.4854e-05
70 *148:41 *149:20 2.8078e-05
71 *148:41 *478:53 0.000159874
72 *148:43 *1480:A2 1.02821e-05
73 *148:43 *1480:B1 2.59355e-05
74 *148:43 *1486:B 9.87041e-05
75 *148:43 *207:10 4.72917e-05
76 *148:43 *478:53 6.05161e-06
77 *148:45 *1486:B 7.25873e-06
78 *148:45 *152:29 1.02936e-05
79 *148:45 *207:10 0.000355003
80 *148:45 *339:61 9.0145e-05
81 *148:45 *468:53 9.58689e-05
82 *148:51 *153:27 9.39879e-05
83 *148:51 *222:8 0.000146317
84 *148:51 *222:21 9.15842e-06
*RES
1 *1421:X *148:16 32.0857 
2 *148:16 *148:20 0.964286 
3 *148:20 *148:26 14.5893 
4 *148:26 *1506:C1 9.3 
5 *148:26 *148:35 5.89286 
6 *148:35 *148:39 5.48214 
7 *148:39 *148:41 3.82143 
8 *148:41 *148:43 1.76786 
9 *148:43 *148:45 8.33929 
10 *148:45 *148:51 10.9464 
11 *148:51 *1623:B2 25.55 
12 *148:51 *1537:A 14.9786 
13 *148:45 *1618:A1 9.3 
14 *148:43 *1480:A1 9.3 
15 *148:41 *1484:A1 9.3 
16 *148:39 *1496:C1 25.3 
17 *148:35 *1422:A 9.3 
18 *148:20 *1453:A2 26.9071 
19 *148:16 *1451:B1 9.3 
*END

*D_NET *149 0.0283821
*CONN
*I *1568:A1 I *D sky130_fd_sc_hd__o21ai_1
*I *1560:A2 I *D sky130_fd_sc_hd__o31a_1
*I *1534:A2 I *D sky130_fd_sc_hd__o31a_1
*I *1437:A1 I *D sky130_fd_sc_hd__o221ai_1
*I *1594:A2 I *D sky130_fd_sc_hd__o31a_1
*I *1548:A1 I *D sky130_fd_sc_hd__o21ai_1
*I *1569:A2 I *D sky130_fd_sc_hd__o31a_1
*I *1575:A2 I *D sky130_fd_sc_hd__o31a_1
*I *1615:A1 I *D sky130_fd_sc_hd__o221ai_1
*I *1644:A1 I *D sky130_fd_sc_hd__o21ai_1
*I *1422:X O *D sky130_fd_sc_hd__clkbuf_4
*CAP
1 *1568:A1 0.000112855
2 *1560:A2 2.46736e-05
3 *1534:A2 7.56031e-05
4 *1437:A1 1.25333e-05
5 *1594:A2 0.000869591
6 *1548:A1 0.000223865
7 *1569:A2 0
8 *1575:A2 0
9 *1615:A1 1.47133e-05
10 *1644:A1 0.000165582
11 *1422:X 0.00134105
12 *149:141 0.000940227
13 *149:126 0.000435859
14 *149:118 0.00131422
15 *149:104 0.00159895
16 *149:85 0.000755882
17 *149:74 0.000294823
18 *149:70 0.00175543
19 *149:43 0.00234183
20 *149:20 0.00221967
21 *1437:A1 *1532:A1_N 2.83627e-05
22 *1437:A1 *161:78 5.49544e-05
23 *1534:A2 *1534:A1 3.60088e-05
24 *1534:A2 *266:155 1.80261e-05
25 *1548:A1 *1437:C1 6.29133e-05
26 *1548:A1 *1550:A2 9.71197e-05
27 *1548:A1 *153:104 0.000264256
28 *1548:A1 *381:52 0.000654903
29 *1560:A2 *1560:A3 3.45371e-05
30 *1560:A2 *1571:B 2.97489e-05
31 *1568:A1 *1566:B1 3.50746e-05
32 *1568:A1 *1568:A2 5.40223e-05
33 *1568:A1 *1570:A1 1.32293e-05
34 *1568:A1 *288:25 1.70057e-05
35 *1568:A1 *462:19 0.000143161
36 *1594:A2 *1526:B1 5.28157e-05
37 *1594:A2 *1532:A2_N 4.15183e-05
38 *1594:A2 *1535:A 0.000167609
39 *1594:A2 *1594:A1 7.25873e-06
40 *1594:A2 *1594:A3 0
41 *1594:A2 *1646:C 0.000286215
42 *1594:A2 *161:66 0.000313645
43 *1594:A2 *161:78 7.81371e-05
44 *1594:A2 *162:22 3.20389e-05
45 *1594:A2 *252:25 1.89365e-05
46 *1594:A2 *313:12 1.0591e-05
47 *1594:A2 *359:95 4.18441e-05
48 *1594:A2 *385:100 5.49544e-05
49 *1615:A1 *1616:C1 5.49544e-05
50 *1615:A1 *331:8 2.84109e-05
51 *1644:A1 *1645:B1 4.87854e-05
52 *1644:A1 *476:8 0.000137983
53 *1644:A1 *476:15 0.000268396
54 *149:20 *1427:A 0.00015234
55 *149:20 *1497:A1 5.52302e-05
56 *149:20 *152:12 5.51406e-05
57 *149:20 *469:37 0.000535448
58 *149:20 *476:15 0.000970436
59 *149:20 *476:32 0.000130001
60 *149:20 *476:45 6.05161e-06
61 *149:20 *478:36 0.000135783
62 *149:20 *478:53 0.00022432
63 *149:43 *1500:A 5.89318e-05
64 *149:43 *1614:A1_N 0.00025992
65 *149:43 *1614:B1 4.09488e-06
66 *149:43 *1615:B1 3.01126e-05
67 *149:43 *1615:B2 3.72997e-05
68 *149:43 *1616:A2 2.8266e-06
69 *149:43 *1618:B1 0.000237319
70 *149:43 *1619:A2 0.00017185
71 *149:43 *1621:B1 0
72 *149:43 *1623:B1 4.31104e-05
73 *149:43 *153:27 0
74 *149:43 *153:41 0
75 *149:43 *214:23 0.000141277
76 *149:43 *222:8 3.4095e-05
77 *149:43 *222:21 0.000109277
78 *149:70 *1568:A2 1.52978e-05
79 *149:70 *1574:B2 0.000336317
80 *149:70 *1580:B1 0.000640738
81 *149:70 *1581:A2 0.000193909
82 *149:70 *1581:B1 0.000136112
83 *149:70 *1616:A2 9.27685e-05
84 *149:70 *1659:A3 8.57736e-06
85 *149:70 *1679:A0 0.000240423
86 *149:70 *161:20 0.000376324
87 *149:70 *161:33 2.39044e-05
88 *149:70 *239:34 0.000121423
89 *149:70 *254:63 0
90 *149:70 *254:82 0.000242703
91 *149:70 *255:10 5.44167e-05
92 *149:70 *278:42 3.92854e-05
93 *149:70 *288:25 3.68821e-05
94 *149:70 *306:12 4.33438e-05
95 *149:70 *462:19 5.59013e-05
96 *149:70 *462:23 0.000358229
97 *149:70 *474:57 0.000128146
98 *149:74 *381:52 5.52302e-05
99 *149:85 *1569:A3 0.000124943
100 *149:85 *153:43 9.41642e-05
101 *149:85 *153:63 0.000274294
102 *149:85 *288:25 0
103 *149:85 *381:52 1.21289e-05
104 *149:104 *1569:A1 0.000145409
105 *149:104 *1569:A3 1.00887e-05
106 *149:104 *1569:B1 0.000145409
107 *149:104 *1571:B 1.4487e-05
108 *149:104 *1679:A0 1.13495e-05
109 *149:104 *162:126 0.000790048
110 *149:104 *241:10 0.000141729
111 *149:104 *463:29 8.6229e-06
112 *149:118 *1560:A3 8.48678e-06
113 *149:118 *1561:B2 3.67279e-06
114 *149:118 *1729:A 5.98008e-05
115 *149:118 *162:112 0.000716704
116 *149:118 *162:126 0.000478607
117 *149:126 *161:86 0.000354108
118 *149:126 *266:155 0.000164319
119 *149:141 *1437:C1 1.21289e-05
120 *149:141 *1532:A1_N 7.98851e-05
121 *149:141 *153:104 6.09764e-05
122 *149:141 *161:78 7.03959e-05
123 *1623:B2 *149:43 0.000240221
124 *1788:D *1594:A2 0
125 *1817:D *149:118 4.13617e-05
126 *148:39 *149:20 1.10868e-05
127 *148:41 *149:20 2.8078e-05
*RES
1 *1422:X *149:20 43.5321 
2 *149:20 *1644:A1 13.1214 
3 *149:20 *149:43 21.1786 
4 *149:43 *1615:A1 14.3357 
5 *149:43 *149:70 37.9605 
6 *149:70 *149:74 5.03571 
7 *149:74 *1575:A2 9.3 
8 *149:74 *149:85 9.96429 
9 *149:85 *1569:A2 13.8 
10 *149:85 *149:104 16.7857 
11 *149:104 *149:118 15.9168 
12 *149:118 *149:126 9.17857 
13 *149:126 *1548:A1 17.3714 
14 *149:126 *149:141 2.19643 
15 *149:141 *1594:A2 40.2773 
16 *149:141 *1437:A1 9.83571 
17 *149:118 *1534:A2 15.175 
18 *149:104 *1560:A2 10.675 
19 *149:70 *1568:A1 16.7107 
*END

*D_NET *150 0.0192063
*CONN
*I *1521:A2 I *D sky130_fd_sc_hd__a311o_1
*I *1432:B I *D sky130_fd_sc_hd__and3_2
*I *1546:A2 I *D sky130_fd_sc_hd__a31o_1
*I *1431:A2 I *D sky130_fd_sc_hd__a21oi_2
*I *1696:A1 I *D sky130_fd_sc_hd__a22o_1
*I *1425:A I *D sky130_fd_sc_hd__nor2_2
*I *1481:A2 I *D sky130_fd_sc_hd__a211o_1
*I *1485:A2 I *D sky130_fd_sc_hd__a211o_1
*I *1445:B I *D sky130_fd_sc_hd__nand2_4
*I *1660:B2 I *D sky130_fd_sc_hd__a22o_1
*I *1423:X O *D sky130_fd_sc_hd__buf_4
*CAP
1 *1521:A2 0.000113642
2 *1432:B 0.00021456
3 *1546:A2 3.82418e-05
4 *1431:A2 1.69531e-05
5 *1696:A1 0.00217923
6 *1425:A 0
7 *1481:A2 0.000165126
8 *1485:A2 6.77715e-05
9 *1445:B 0
10 *1660:B2 0.000831778
11 *1423:X 0
12 *150:117 0.000406498
13 *150:113 0.000397994
14 *150:102 0.000662181
15 *150:56 0.000353185
16 *150:48 0.000507286
17 *150:40 0.00291175
18 *150:36 0.000860095
19 *150:8 0.000973325
20 *150:4 0.000141547
21 *1431:A2 *1431:A1 5.33005e-05
22 *1431:A2 *163:111 5.33005e-05
23 *1432:B *1432:A 8.25843e-06
24 *1432:B *1546:A1 2.24064e-05
25 *1432:B *1546:B1 9.07742e-06
26 *1432:B *483:40 4.51726e-05
27 *1481:A2 *1481:A1 0.000172656
28 *1481:A2 *1485:A1 0.000120368
29 *1481:A2 *223:14 0.000111444
30 *1481:A2 *228:39 1.03037e-05
31 *1481:A2 *486:70 2.23235e-05
32 *1485:A2 *1484:B1 6.14702e-06
33 *1485:A2 *1485:A1 5.5764e-05
34 *1485:A2 *1486:B 2.83763e-05
35 *1485:A2 *210:8 9.23561e-06
36 *1485:A2 *481:37 9.26954e-07
37 *1485:A2 *486:70 8.46259e-06
38 *1521:A2 *1521:A1 1.33343e-05
39 *1521:A2 *1521:A3 3.03456e-05
40 *1521:A2 *1521:C1 0.000174083
41 *1521:A2 *1547:A2 7.83659e-05
42 *1521:A2 *151:85 5.08481e-05
43 *1521:A2 *200:44 5.66157e-05
44 *1521:A2 *246:33 2.14757e-05
45 *1660:B2 *1648:A1 4.21517e-05
46 *1660:B2 *1660:A1 5.65955e-05
47 *1660:B2 *160:35 2.07878e-05
48 *1660:B2 *238:8 0.000158225
49 *1660:B2 *277:17 0.000147131
50 *1660:B2 *486:70 0.000755592
51 *1660:B2 *491:8 0.000165601
52 *1696:A1 *1604:B1 2.56683e-05
53 *1696:A1 *1605:A2 9.54798e-06
54 *1696:A1 *228:39 0.00112405
55 *1696:A1 *259:129 0.000450386
56 *1696:A1 *278:125 2.06112e-05
57 *1696:A1 *359:20 9.59532e-06
58 *150:8 *1423:A 0.000140933
59 *150:8 *1445:A 2.63472e-05
60 *150:8 *238:8 0.00039604
61 *150:40 *1428:A 0.000217899
62 *150:40 *1447:B 0
63 *150:40 *155:8 0
64 *150:40 *157:12 0
65 *150:40 *479:26 0.000363636
66 *150:48 *1497:B1 7.69776e-06
67 *150:48 *166:36 1.16198e-05
68 *150:48 *166:47 5.54817e-06
69 *150:48 *228:39 0.000592217
70 *150:56 *1425:B 1.19813e-05
71 *150:56 *1485:A1 1.29776e-05
72 *150:56 *210:8 8.7842e-05
73 *150:56 *481:37 0.000234618
74 *150:102 *1474:A2 0.000384953
75 *150:102 *1540:A 0
76 *150:102 *151:74 0.000211808
77 *150:102 *157:12 0
78 *150:102 *200:25 0.000180311
79 *150:102 *386:14 6.74867e-05
80 *150:102 *479:26 0.000706163
81 *150:113 *151:74 1.12578e-05
82 *150:113 *151:85 0.000157294
83 *150:113 *200:25 0.0002641
84 *150:113 *200:44 6.81083e-05
85 *150:117 *1432:A 8.25843e-06
86 *150:117 *151:89 2.15245e-05
87 *150:117 *200:50 2.59355e-05
*RES
1 *1423:X *150:4 9.3 
2 *150:4 *150:8 4.25 
3 *150:8 *1660:B2 37.05 
4 *150:8 *1445:B 9.3 
5 *150:4 *150:36 4.5 
6 *150:36 *150:40 10.9725 
7 *150:40 *150:48 9.17065 
8 *150:48 *150:56 7.94643 
9 *150:56 *1485:A2 15.3268 
10 *150:56 *1481:A2 17.9429 
11 *150:48 *1425:A 9.3 
12 *150:40 *1696:A1 22.5785 
13 *150:36 *150:102 14.6964 
14 *150:102 *1431:A2 14.3357 
15 *150:102 *150:113 4.375 
16 *150:113 *150:117 6.26786 
17 *150:117 *1546:A2 10.0321 
18 *150:117 *1432:B 11.8893 
19 *150:113 *1521:A2 17.3179 
*END

*D_NET *151 0.00968661
*CONN
*I *1521:A3 I *D sky130_fd_sc_hd__a311o_1
*I *1432:A I *D sky130_fd_sc_hd__and3_2
*I *1546:A3 I *D sky130_fd_sc_hd__a31o_1
*I *1431:A1 I *D sky130_fd_sc_hd__a21oi_2
*I *1445:A I *D sky130_fd_sc_hd__nand2_4
*I *1425:B I *D sky130_fd_sc_hd__nor2_2
*I *1485:A1 I *D sky130_fd_sc_hd__a211o_1
*I *1481:A1 I *D sky130_fd_sc_hd__a211o_1
*I *1424:Y O *D sky130_fd_sc_hd__inv_2
*CAP
1 *1521:A3 9.49834e-05
2 *1432:A 8.05801e-05
3 *1546:A3 2.23854e-05
4 *1431:A1 7.17204e-05
5 *1445:A 0.000132196
6 *1425:B 1.74488e-05
7 *1485:A1 0.000119879
8 *1481:A1 6.49223e-05
9 *1424:Y 9.27061e-05
10 *151:89 0.000209219
11 *151:85 0.000442124
12 *151:74 0.000908847
13 *151:59 0.000984154
14 *151:26 0.000483416
15 *151:10 0.000460683
16 *151:6 0.000493043
17 *1431:A1 *161:52 0.000113426
18 *1431:A1 *163:111 8.74903e-05
19 *1432:A *1546:A1 9.71197e-05
20 *1432:A *159:8 0.000180777
21 *1432:A *483:40 5.52302e-05
22 *1445:A *1423:A 0.000140933
23 *1481:A1 *1481:B1 2.92346e-05
24 *1481:A1 *1481:C1 5.49995e-05
25 *1481:A1 *223:14 1.38323e-05
26 *1481:A1 *228:39 2.56811e-05
27 *1485:A1 *1484:B1 4.27842e-06
28 *1485:A1 *1496:A2 8.6137e-05
29 *1485:A1 *223:14 6.14702e-06
30 *1521:A3 *1547:A2 8.00806e-05
31 *1521:A3 *383:177 0
32 *1546:A3 *483:40 0
33 *151:6 *1424:A 3.11088e-05
34 *151:6 *1428:B 4.86074e-05
35 *151:6 *481:37 0.000351474
36 *151:10 *1428:B 0.000207905
37 *151:10 *210:8 1.38323e-05
38 *151:10 *478:57 5.33005e-05
39 *151:10 *481:37 0.000192069
40 *151:26 *1481:B1 0.000106295
41 *151:26 *1481:C1 7.98297e-05
42 *151:26 *1497:B1 0.000120339
43 *151:26 *166:47 4.45982e-06
44 *151:26 *210:8 2.85234e-05
45 *151:26 *223:14 1.24368e-05
46 *151:26 *228:39 0.000110393
47 *151:26 *481:37 2.59355e-05
48 *151:59 *1428:A 0.000172252
49 *151:59 *479:26 0.000422663
50 *151:59 *484:8 1.88048e-05
51 *151:59 *484:10 0.000186399
52 *151:74 *205:18 0
53 *151:74 *383:177 0
54 *151:74 *479:26 0.000644161
55 *151:74 *484:8 8.2806e-05
56 *151:85 *383:177 0
57 *151:89 *1547:A2 9.60875e-05
58 *151:89 *200:50 7.02611e-05
59 *1431:A2 *1431:A1 5.33005e-05
60 *1432:B *1432:A 8.25843e-06
61 *1481:A2 *1481:A1 0.000172656
62 *1481:A2 *1485:A1 0.000120368
63 *1485:A2 *1485:A1 5.5764e-05
64 *1521:A2 *1521:A3 3.03456e-05
65 *1521:A2 *151:85 5.08481e-05
66 *1790:RESET_B *151:74 0
67 *150:8 *1445:A 2.63472e-05
68 *150:56 *1425:B 1.19813e-05
69 *150:56 *1485:A1 1.29776e-05
70 *150:102 *151:74 0.000211808
71 *150:113 *151:74 1.12578e-05
72 *150:113 *151:85 0.000157294
73 *150:117 *1432:A 8.25843e-06
74 *150:117 *151:89 2.15245e-05
*RES
1 *1424:Y *151:6 12.7107 
2 *151:6 *151:10 4.25 
3 *151:10 *151:26 14.75 
4 *151:26 *1481:A1 11.4964 
5 *151:26 *1485:A1 21.1214 
6 *151:10 *1425:B 9.72857 
7 *151:6 *151:59 12.2143 
8 *151:59 *1445:A 16.425 
9 *151:59 *151:74 14.0893 
10 *151:74 *1431:A1 15.9786 
11 *151:74 *151:85 5.28571 
12 *151:85 *151:89 6.67857 
13 *151:89 *1546:A3 9.72857 
14 *151:89 *1432:A 11.4786 
15 *151:85 *1521:A3 15.8714 
*END

*D_NET *152 0.00540591
*CONN
*I *1426:A I *D sky130_fd_sc_hd__clkbuf_4
*I *1618:A2 I *D sky130_fd_sc_hd__o22a_1
*I *1623:B1 I *D sky130_fd_sc_hd__o32a_1
*I *1537:B I *D sky130_fd_sc_hd__nor2_4
*I *1425:Y O *D sky130_fd_sc_hd__nor2_2
*CAP
1 *1426:A 0
2 *1618:A2 0
3 *1623:B1 0.000293962
4 *1537:B 4.89748e-05
5 *1425:Y 0.000321754
6 *152:29 0.000981738
7 *152:14 0.000783929
8 *152:12 0.000368933
9 *1537:B *263:92 5.20669e-05
10 *1623:B1 *217:10 5.71472e-05
11 *1623:B1 *219:16 0.000138881
12 *1623:B1 *221:10 2.8266e-06
13 *1623:B1 *221:23 1.18451e-05
14 *1623:B1 *222:8 0.000188118
15 *1623:B1 *335:6 5.52302e-05
16 *1623:B1 *339:61 5.33005e-05
17 *152:12 *1427:A 8.50152e-05
18 *152:12 *1427:B 1.33343e-05
19 *152:12 *1484:B1 1.07401e-05
20 *152:12 *1497:B1 0.000165143
21 *152:12 *166:36 5.35514e-05
22 *152:12 *263:92 0.000135923
23 *152:14 *263:92 4.87953e-05
24 *152:29 *207:10 0.000616125
25 *152:29 *339:61 0.000219711
26 *152:29 *486:70 0.000146071
27 *1623:B2 *1623:B1 0.000444245
28 *148:45 *152:29 1.02936e-05
29 *149:20 *152:12 5.51406e-05
30 *149:43 *1623:B1 4.31104e-05
*RES
1 *1425:Y *152:12 25.675 
2 *152:12 *152:14 0.946429 
3 *152:14 *1537:B 10.2464 
4 *152:14 *152:29 19.2857 
5 *152:29 *1623:B1 26.175 
6 *152:29 *1618:A2 9.3 
7 *152:12 *1426:A 9.3 
*END

*D_NET *153 0.0263512
*CONN
*I *1615:A2 I *D sky130_fd_sc_hd__o221ai_1
*I *1534:A3 I *D sky130_fd_sc_hd__o31a_1
*I *1594:A3 I *D sky130_fd_sc_hd__o31a_1
*I *1437:A2 I *D sky130_fd_sc_hd__o221ai_1
*I *1548:A2 I *D sky130_fd_sc_hd__o21ai_1
*I *1560:A3 I *D sky130_fd_sc_hd__o31a_1
*I *1569:A3 I *D sky130_fd_sc_hd__o31a_1
*I *1575:A3 I *D sky130_fd_sc_hd__o31a_1
*I *1568:A2 I *D sky130_fd_sc_hd__o21ai_1
*I *1644:A2 I *D sky130_fd_sc_hd__o21ai_1
*I *1426:X O *D sky130_fd_sc_hd__clkbuf_4
*CAP
1 *1615:A2 0.000195767
2 *1534:A3 0.000607819
3 *1594:A3 0.000669743
4 *1437:A2 0
5 *1548:A2 0
6 *1560:A3 0.000302305
7 *1569:A3 6.23213e-05
8 *1575:A3 0
9 *1568:A2 0.00013681
10 *1644:A2 0.000164923
11 *1426:X 0.000220528
12 *153:117 0.00155856
13 *153:104 0.000981294
14 *153:95 0.00104595
15 *153:76 0.00109766
16 *153:63 0.000569723
17 *153:43 0.000165714
18 *153:41 0.00160016
19 *153:27 0.0022805
20 *153:12 0.000956624
21 *1534:A3 *1534:B1 2.84026e-05
22 *1534:A3 *162:89 0
23 *1534:A3 *466:14 5.63746e-05
24 *1534:A3 *466:57 4.58699e-05
25 *1560:A3 *1560:B1 0.000152127
26 *1560:A3 *1571:B 9.45048e-06
27 *1560:A3 *259:24 0.000196273
28 *1560:A3 *278:42 0
29 *1568:A2 *1566:B1 5.49995e-05
30 *1568:A2 *1570:A1 6.93704e-06
31 *1568:A2 *288:25 0.000123637
32 *1569:A3 *1679:A0 7.69713e-05
33 *1594:A3 *1526:A1 1.41029e-05
34 *1594:A3 *1526:B1 0
35 *1594:A3 *1532:A2_N 0
36 *1594:A3 *1532:B1 0.000100831
37 *1594:A3 *1812:CLK 0.000363089
38 *1594:A3 *313:12 7.43598e-05
39 *1594:A3 *385:100 0.000226146
40 *1594:A3 *390:38 0.000373699
41 *1594:A3 *390:107 0.000235852
42 *1594:A3 *466:57 2.84398e-05
43 *1615:A2 *1616:C1 0.000142023
44 *1644:A2 *254:33 0.000519489
45 *1644:A2 *476:8 9.60875e-05
46 *1644:A2 *476:15 0.000505123
47 *153:12 *254:33 0.000858756
48 *153:12 *476:15 0.000744199
49 *153:12 *476:32 0.000125547
50 *153:12 *478:23 2.84494e-05
51 *153:12 *478:36 6.07328e-05
52 *153:12 *486:70 8.91822e-05
53 *153:27 *1612:B 6.32026e-05
54 *153:27 *1614:A1_N 4.038e-06
55 *153:27 *1614:A2_N 0.000182902
56 *153:27 *1614:B1 1.01912e-05
57 *153:27 *221:23 0.000267544
58 *153:27 *222:8 4.038e-06
59 *153:27 *222:21 0.000134587
60 *153:27 *263:43 0.000709045
61 *153:27 *339:61 0.000102197
62 *153:27 *468:53 0.000124019
63 *153:41 *1516:D 3.01126e-05
64 *153:41 *1528:A 8.08022e-05
65 *153:41 *1562:B 0.000165999
66 *153:41 *1573:A1 7.20343e-05
67 *153:41 *1574:A2 0.000150625
68 *153:41 *1577:A 3.44112e-05
69 *153:41 *1577:B 0.000104974
70 *153:41 *1581:A2 0.000509171
71 *153:41 *1616:A2 7.29452e-05
72 *153:41 *1616:B1 0.00016107
73 *153:41 *1647:B1 9.21418e-06
74 *153:41 *1647:B2 4.37992e-05
75 *153:41 *1647:C1 2.06178e-05
76 *153:41 *1790:CLK 0
77 *153:41 *161:10 7.07171e-05
78 *153:41 *161:20 0.000176004
79 *153:41 *163:22 0.000101615
80 *153:41 *242:10 4.66385e-05
81 *153:41 *255:10 4.43046e-05
82 *153:41 *263:43 0.000319029
83 *153:41 *288:10 0.000425926
84 *153:41 *288:25 0.00019554
85 *153:41 *389:10 0
86 *153:41 *485:22 0.000144732
87 *153:43 *1575:B1 5.33005e-05
88 *153:43 *381:52 2.28499e-05
89 *153:63 *1575:B1 0.000128496
90 *153:63 *259:24 0.000186669
91 *153:76 *259:24 0.00107005
92 *153:95 *1550:A2 0.000183726
93 *153:95 *1552:A 9.90367e-05
94 *153:95 *259:24 2.14658e-05
95 *153:95 *381:52 0.000174039
96 *153:104 *1532:A1_N 5.65955e-05
97 *153:104 *1550:A2 3.1889e-05
98 *153:117 *1532:A1_N 9.84196e-05
99 *153:117 *390:113 0.000396227
100 *1548:A1 *153:104 0.000264256
101 *1560:A2 *1560:A3 3.45371e-05
102 *1568:A1 *1568:A2 5.40223e-05
103 *1594:A2 *1594:A3 0
104 *1788:D *1594:A3 5.10822e-05
105 *1797:D *153:41 2.00751e-05
106 *1817:D *1560:A3 3.75868e-05
107 *1820:D *1534:A3 2.84109e-05
108 *1820:D *153:117 5.52302e-05
109 *1820:RESET_B *1534:A3 6.53558e-05
110 *148:51 *153:27 9.39879e-05
111 *149:43 *153:27 0
112 *149:43 *153:41 0
113 *149:70 *1568:A2 1.52978e-05
114 *149:85 *1569:A3 0.000124943
115 *149:85 *153:43 9.41642e-05
116 *149:85 *153:63 0.000274294
117 *149:104 *1569:A3 1.00887e-05
118 *149:118 *1560:A3 8.48678e-06
119 *149:141 *153:104 6.09764e-05
*RES
1 *1426:X *153:12 28.8893 
2 *153:12 *1644:A2 15.175 
3 *153:12 *153:27 19.5536 
4 *153:27 *153:41 40.1964 
5 *153:41 *153:43 0.946429 
6 *153:43 *1568:A2 20.8893 
7 *153:43 *1575:A3 9.3 
8 *153:41 *153:63 3 
9 *153:63 *1569:A3 20.2464 
10 *153:63 *153:76 10.3929 
11 *153:76 *1560:A3 24.05 
12 *153:76 *153:95 7.125 
13 *153:95 *1548:A2 9.3 
14 *153:95 *153:104 9.17857 
15 *153:104 *1437:A2 9.3 
16 *153:104 *153:117 10.1071 
17 *153:117 *1594:A3 30.675 
18 *153:117 *1534:A3 24.4964 
19 *153:27 *1615:A2 16.3893 
*END

*D_NET *154 0.00263726
*CONN
*I *1447:A I *D sky130_fd_sc_hd__nand3_4
*I *1430:B I *D sky130_fd_sc_hd__nand4b_4
*I *1439:A I *D sky130_fd_sc_hd__clkbuf_4
*I *1427:Y O *D sky130_fd_sc_hd__nor2_2
*CAP
1 *1447:A 0.000180082
2 *1430:B 0
3 *1439:A 0
4 *1427:Y 7.06478e-05
5 *154:19 0.000618762
6 *154:6 0.000509328
7 *1447:A *1430:A_N 4.96113e-05
8 *1447:A *1447:C 9.90431e-05
9 *1447:A *1448:A2 3.67257e-05
10 *1447:A *155:12 3.17684e-05
11 *1447:A *155:64 3.69047e-06
12 *1447:A *157:12 0
13 *1447:A *303:20 5.09592e-05
14 *154:6 *263:92 0.000105163
15 *154:19 *1444:A2 0.000422741
16 *154:19 *1462:A1 9.25014e-06
17 *154:19 *155:8 0
18 *154:19 *155:16 0.000139362
19 *154:19 *155:18 0.000109206
20 *154:19 *157:12 5.54817e-06
21 *154:19 *263:92 0.000195376
*RES
1 *1427:Y *154:6 11.0679 
2 *154:6 *1439:A 9.3 
3 *154:6 *154:19 20.125 
4 *154:19 *1430:B 9.3 
5 *154:19 *1447:A 22.4429 
*END

*D_NET *155 0.00570631
*CONN
*I *1447:B I *D sky130_fd_sc_hd__nand3_4
*I *1440:B I *D sky130_fd_sc_hd__and3_1
*I *1430:C I *D sky130_fd_sc_hd__nand4b_4
*I *1506:A2 I *D sky130_fd_sc_hd__a211o_1
*I *1451:A2 I *D sky130_fd_sc_hd__a21oi_2
*I *1454:B I *D sky130_fd_sc_hd__nand2_2
*I *1461:B I *D sky130_fd_sc_hd__nand3_1
*I *1428:Y O *D sky130_fd_sc_hd__nor2_4
*CAP
1 *1447:B 0.000238353
2 *1440:B 0.000359059
3 *1430:C 5.15024e-05
4 *1506:A2 3.91248e-05
5 *1451:A2 0
6 *1454:B 7.91271e-05
7 *1461:B 2.85908e-05
8 *1428:Y 0.000110225
9 *155:64 0.000481801
10 *155:26 0.000263107
11 *155:18 0.000277147
12 *155:16 0.000361368
13 *155:12 0.000488979
14 *155:8 0.000565832
15 *1440:B *1430:A_N 1.12992e-05
16 *1440:B *1440:A 8.25843e-06
17 *1440:B *1440:C 8.12506e-05
18 *1447:B *1447:C 4.62869e-05
19 *1447:B *1448:A2 2.44318e-05
20 *1447:B *157:12 8.94768e-05
21 *1447:B *174:6 5.17614e-05
22 *1447:B *229:16 4.35567e-05
23 *1454:B *1454:A 0.000176072
24 *1454:B *1458:A1 3.69047e-06
25 *1454:B *1609:A3 1.21032e-05
26 *1461:B *480:33 0
27 *1506:A2 *1507:C 9.71197e-05
28 *1506:A2 *469:37 1.21258e-05
29 *155:8 *1444:A2 8.08476e-06
30 *155:12 *1430:A_N 1.60665e-05
31 *155:16 *303:20 1.8441e-05
32 *155:16 *481:41 4.95678e-05
33 *155:16 *481:47 7.9585e-05
34 *155:18 *1462:A1 0.000167691
35 *155:18 *481:47 0.000387267
36 *155:26 *1454:A 0
37 *155:26 *1462:A1 0.000171512
38 *155:26 *1462:B1 1.39726e-05
39 *155:26 *1609:A3 0.000179445
40 *155:26 *480:33 1.33343e-05
41 *155:26 *481:47 0.000169797
42 *155:64 *1430:A_N 8.22661e-06
43 *1447:A *155:12 3.17684e-05
44 *1447:A *155:64 3.69047e-06
45 *148:35 *1506:A2 0.000137639
46 *150:40 *1447:B 0
47 *150:40 *155:8 0
48 *154:19 *155:8 0
49 *154:19 *155:16 0.000139362
50 *154:19 *155:18 0.000109206
*RES
1 *1428:Y *155:8 15.4429 
2 *155:8 *155:12 7.08929 
3 *155:12 *155:16 8.57143 
4 *155:16 *155:18 4.98214 
5 *155:18 *155:26 8.98214 
6 *155:26 *1461:B 10.0411 
7 *155:26 *1454:B 11.4607 
8 *155:18 *1451:A2 13.8 
9 *155:16 *1506:A2 15.1571 
10 *155:12 *155:64 0.946429 
11 *155:64 *1430:C 10.3357 
12 *155:64 *1440:B 13.5321 
13 *155:8 *1447:B 19.5857 
*END

*D_NET *156 0.0026604
*CONN
*I *1447:C I *D sky130_fd_sc_hd__nand3_4
*I *1440:C I *D sky130_fd_sc_hd__and3_1
*I *1430:D I *D sky130_fd_sc_hd__nand4b_4
*I *1429:Y O *D sky130_fd_sc_hd__nor2_2
*CAP
1 *1447:C 0.000179625
2 *1440:C 0.000118338
3 *1430:D 0
4 *1429:Y 0.000169077
5 *156:14 0.000118338
6 *156:12 0.000348702
7 *1440:C *1440:A 0.000178503
8 *1440:C *167:10 6.41415e-05
9 *1447:C *1440:A 2.28343e-05
10 *1447:C *1448:A2 6.36515e-05
11 *1447:C *1449:A2 0.00014322
12 *1447:C *229:16 0.000399419
13 *1447:C *303:20 3.34774e-05
14 *156:12 *1440:A 0.00015018
15 *156:12 *1444:A2 0.00022277
16 *156:12 *1444:B1 1.80261e-05
17 *156:12 *1449:A2 0.000148514
18 *156:12 *481:37 5.49995e-05
19 *1440:B *1440:C 8.12506e-05
20 *1447:A *1447:C 9.90431e-05
21 *1447:B *1447:C 4.62869e-05
*RES
1 *1429:Y *156:12 18.3536 
2 *156:12 *156:14 4.5 
3 *156:14 *1430:D 9.3 
4 *156:14 *1440:C 12.5143 
5 *156:12 *1447:C 19.9964 
*END

*D_NET *157 0.00528301
*CONN
*I *1525:B1 I *D sky130_fd_sc_hd__a221o_1
*I *1433:A1 I *D sky130_fd_sc_hd__a21oi_4
*I *1470:A2 I *D sky130_fd_sc_hd__o211ai_4
*I *1430:Y O *D sky130_fd_sc_hd__nand4b_4
*CAP
1 *1525:B1 0.000172417
2 *1433:A1 2.97736e-05
3 *1470:A2 0
4 *1430:Y 0.000546367
5 *157:23 0.000482081
6 *157:12 0.000826258
7 *1433:A1 *1433:A2 0.000139344
8 *1433:A1 *390:14 0.000139344
9 *1525:B1 *1521:A1 5.86416e-05
10 *1525:B1 *1525:A1 1.02504e-05
11 *1525:B1 *1525:B2 0
12 *1525:B1 *160:8 4.62964e-05
13 *1525:B1 *256:21 0.000177088
14 *1525:B1 *483:53 8.22749e-05
15 *157:12 *1473:A2 0.000348287
16 *157:12 *1474:A2 0
17 *157:12 *1540:A 0.000688361
18 *157:12 *174:10 0.00053661
19 *157:12 *174:53 1.12323e-05
20 *157:12 *303:20 0
21 *157:12 *400:36 2.59355e-05
22 *157:23 *1470:B1 0.000156769
23 *157:23 *1473:A2 1.18064e-05
24 *157:23 *160:8 0.000419327
25 *157:23 *256:21 7.97574e-05
26 *157:23 *303:10 5.541e-05
27 *157:23 *303:20 9.70635e-05
28 *157:23 *400:36 4.72917e-05
29 *1447:A *157:12 0
30 *1447:B *157:12 8.94768e-05
31 *150:40 *157:12 0
32 *150:102 *157:12 0
33 *154:19 *157:12 5.54817e-06
*RES
1 *1430:Y *157:12 33.5321 
2 *157:12 *1470:A2 9.3 
3 *157:12 *157:23 12.5536 
4 *157:23 *1433:A1 15.1571 
5 *157:23 *1525:B1 18.4786 
*END

*D_NET *158 0.0029286
*CONN
*I *1525:B2 I *D sky130_fd_sc_hd__a221o_1
*I *1433:A2 I *D sky130_fd_sc_hd__a21oi_4
*I *1473:B1 I *D sky130_fd_sc_hd__o21a_2
*I *1431:Y O *D sky130_fd_sc_hd__a21oi_2
*CAP
1 *1525:B2 0.000212701
2 *1433:A2 0.000261222
3 *1473:B1 0.000139542
4 *1431:Y 3.92518e-05
5 *158:19 0.000523492
6 *158:8 0.000228363
7 *1433:A2 *1433:B1 5.50052e-05
8 *1433:A2 *390:14 0.000123946
9 *1473:B1 *1473:A2 5.54817e-06
10 *1473:B1 *160:8 6.18393e-05
11 *1473:B1 *160:35 7.7069e-05
12 *1473:B1 *460:10 9.2164e-05
13 *1473:B1 *483:53 2.71964e-05
14 *1525:B2 *1433:B1 0.000264342
15 *1525:B2 *1521:A1 0.000151299
16 *1525:B2 *1525:A2 4.12298e-05
17 *1525:B2 *1525:C1 5.52302e-05
18 *1525:B2 *1546:B1 0.000125724
19 *1525:B2 *159:21 9.96264e-05
20 *1525:B2 *460:10 6.57499e-06
21 *1525:B2 *483:53 5.01946e-05
22 *158:8 *161:52 5.50052e-05
23 *158:19 *460:10 4.51723e-05
24 *158:19 *483:53 4.75203e-05
25 *1433:A1 *1433:A2 0.000139344
26 *1525:B1 *1525:B2 0
*RES
1 *1431:Y *158:8 14.3357 
2 *158:8 *1473:B1 17.2643 
3 *158:8 *158:19 1.33929 
4 *158:19 *1433:A2 18.4607 
5 *158:19 *1525:B2 20.2866 
*END

*D_NET *159 0.00948079
*CONN
*I *1525:C1 I *D sky130_fd_sc_hd__a221o_1
*I *1520:A1 I *D sky130_fd_sc_hd__o21ai_1
*I *1562:A I *D sky130_fd_sc_hd__or3b_1
*I *1577:A I *D sky130_fd_sc_hd__or3b_1
*I *1433:B1 I *D sky130_fd_sc_hd__a21oi_4
*I *1432:X O *D sky130_fd_sc_hd__and3_2
*CAP
1 *1525:C1 3.58435e-05
2 *1520:A1 0.000154014
3 *1562:A 0.000357915
4 *1577:A 0.000116321
5 *1433:B1 0.000152638
6 *1432:X 0.000256498
7 *159:41 0.00135897
8 *159:27 0.00165218
9 *159:21 0.000698118
10 *159:8 0.000457976
11 *1433:B1 *385:92 1.98839e-05
12 *1433:B1 *390:14 5.50052e-05
13 *1433:B1 *460:10 0.000267643
14 *1520:A1 *1520:A2 1.92905e-05
15 *1520:A1 *1543:B 1.21371e-05
16 *1520:A1 *1544:B1_N 5.71472e-05
17 *1520:A1 *165:29 3.51368e-05
18 *1520:A1 *244:10 0
19 *1520:A1 *278:10 0.000106345
20 *1525:C1 *1521:A1 1.98839e-05
21 *1525:C1 *1525:A2 9.90431e-05
22 *1525:C1 *460:10 1.1594e-05
23 *1562:A *1438:A4 0.000226233
24 *1562:A *1562:B 0.00066601
25 *1562:A *1562:C_N 0.00011498
26 *1562:A *1576:B1 0
27 *1562:A *1577:C_N 0.000267807
28 *1562:A *1616:B1 1.32511e-05
29 *1562:A *1679:A0 0
30 *1577:A *1562:B 0.000102403
31 *1577:A *1577:B 0.00010326
32 *1577:A *1577:C_N 0.000239506
33 *1577:A *1824:A 8.07792e-06
34 *159:8 *483:36 9.80173e-05
35 *159:8 *483:40 3.68898e-05
36 *159:21 *460:10 0.000100376
37 *159:27 *384:135 0.000143457
38 *159:41 *1517:A1 9.90431e-05
39 *159:41 *1517:B1 0.000137983
40 *159:41 *1824:A 0.000135028
41 *159:41 *200:50 5.89174e-05
42 *159:41 *200:54 0.000197704
43 *159:41 *244:10 0
44 *159:41 *278:10 5.30491e-05
45 *159:41 *279:55 4.58194e-05
46 *1432:A *159:8 0.000180777
47 *1433:A2 *1433:B1 5.50052e-05
48 *1525:B2 *1433:B1 0.000264342
49 *1525:B2 *1525:C1 5.52302e-05
50 *1525:B2 *159:21 9.96264e-05
51 *153:41 *1577:A 3.44112e-05
*RES
1 *1432:X *159:8 17.2107 
2 *159:8 *1433:B1 18.2107 
3 *159:8 *159:21 1.49107 
4 *159:21 *159:27 8.09213 
5 *159:27 *159:41 23.0982 
6 *159:41 *1577:A 17.2643 
7 *159:41 *1562:A 24.2107 
8 *159:27 *1520:A1 17.4696 
9 *159:21 *1525:C1 15.0232 
*END

*D_NET *160 0.00927691
*CONN
*I *1434:A I *D sky130_fd_sc_hd__buf_4
*I *1513:B I *D sky130_fd_sc_hd__xor2_2
*I *1512:B I *D sky130_fd_sc_hd__xor2_2
*I *1470:B1 I *D sky130_fd_sc_hd__o211ai_4
*I *1433:Y O *D sky130_fd_sc_hd__a21oi_4
*CAP
1 *1434:A 0
2 *1513:B 0.000184927
3 *1512:B 7.22151e-05
4 *1470:B1 0.000141972
5 *1433:Y 0.000195377
6 *160:39 0.000446238
7 *160:35 0.00188292
8 *160:8 0.00203117
9 *1470:B1 *1473:A2 0.000103253
10 *1470:B1 *400:36 2.60984e-05
11 *1512:B *1586:A1 4.1331e-06
12 *1512:B *279:23 9.15842e-06
13 *1512:B *474:25 5.52919e-05
14 *1512:B *491:61 0.000172461
15 *1513:B *1513:A 9.22545e-05
16 *1513:B *1581:B2 1.35465e-05
17 *1513:B *279:23 0.00017984
18 *1513:B *385:92 7.06211e-05
19 *1513:B *474:25 6.10115e-05
20 *1513:B *491:61 0.000373436
21 *160:8 *1473:A2 4.60858e-05
22 *160:8 *483:53 0.000214764
23 *160:35 *1473:A2 1.36073e-05
24 *160:35 *1660:A1 1.8226e-05
25 *160:35 *1661:B1 0.000175892
26 *160:35 *205:18 0.000181796
27 *160:35 *239:49 5.14942e-05
28 *160:35 *303:115 0.000773085
29 *160:35 *303:133 8.40924e-05
30 *160:35 *460:10 0.000120129
31 *160:39 *1584:A 0.000347173
32 *160:39 *239:49 0.000180959
33 *160:39 *485:22 0.000171594
34 *1473:B1 *160:8 6.18393e-05
35 *1473:B1 *160:35 7.7069e-05
36 *1525:B1 *160:8 4.62964e-05
37 *1660:B2 *160:35 2.07878e-05
38 *157:23 *1470:B1 0.000156769
39 *157:23 *160:8 0.000419327
*RES
1 *1433:Y *160:8 19.9964 
2 *160:8 *1470:B1 16.925 
3 *160:8 *160:35 36.5536 
4 *160:35 *160:39 9.96429 
5 *160:39 *1512:B 6.75 
6 *160:39 *1513:B 10.7768 
7 *160:35 *1434:A 9.3 
*END

*D_NET *161 0.0229853
*CONN
*I *1450:A2 I *D sky130_fd_sc_hd__a32oi_1
*I *1442:A2 I *D sky130_fd_sc_hd__a21oi_1
*I *1526:A2 I *D sky130_fd_sc_hd__a22oi_1
*I *1535:B I *D sky130_fd_sc_hd__xor2_1
*I *1437:B1 I *D sky130_fd_sc_hd__o221ai_1
*I *1518:B I *D sky130_fd_sc_hd__xor2_1
*I *1514:B I *D sky130_fd_sc_hd__xor2_2
*I *1438:B1 I *D sky130_fd_sc_hd__o41a_1
*I *1515:B I *D sky130_fd_sc_hd__xor2_2
*I *1563:B1 I *D sky130_fd_sc_hd__o21a_1
*I *1434:X O *D sky130_fd_sc_hd__buf_4
*CAP
1 *1450:A2 0
2 *1442:A2 0.000226005
3 *1526:A2 0.00020353
4 *1535:B 0
5 *1437:B1 0
6 *1518:B 0
7 *1514:B 0.00135394
8 *1438:B1 0.000106183
9 *1515:B 2.68652e-05
10 *1563:B1 7.63194e-05
11 *1434:X 0.000116472
12 *161:135 0.000696564
13 *161:86 0.00189341
14 *161:78 0.000690096
15 *161:68 0.00018798
16 *161:66 0.000811369
17 *161:52 0.0026635
18 *161:33 0.000191424
19 *161:20 0.000749128
20 *161:10 0.00235336
21 *1438:B1 *165:10 3.97677e-05
22 *1438:B1 *242:10 9.90367e-05
23 *1438:B1 *462:32 0.000306914
24 *1442:A2 *1450:B1 0.000100204
25 *1442:A2 *1478:B2 1.6618e-05
26 *1514:B *1552:B 0.00022239
27 *1514:B *1679:A0 0.000144132
28 *1514:B *1817:CLK 2.84109e-05
29 *1514:B *162:126 3.20731e-05
30 *1514:B *245:12 9.41642e-05
31 *1514:B *380:67 7.04988e-05
32 *1514:B *380:69 2.24804e-05
33 *1514:B *380:103 5.89471e-05
34 *1514:B *463:29 1.50223e-05
35 *1515:B *462:32 4.70821e-05
36 *1526:A2 *1526:A1 2.1768e-05
37 *1526:A2 *1526:B1 1.83136e-05
38 *1526:A2 *1526:B2 2.42516e-05
39 *1526:A2 *261:10 5.33005e-05
40 *1563:B1 *1563:A1 0.000140933
41 *1563:B1 *1574:B2 2.59355e-05
42 *1563:B1 *286:16 2.6269e-05
43 *161:10 *389:10 0.000235318
44 *161:20 *1436:A 5.49995e-05
45 *161:20 *1579:A1 0.000168529
46 *161:20 *1579:A2 1.32056e-05
47 *161:20 *1581:A2 0.000261463
48 *161:20 *1581:B1 3.68465e-05
49 *161:20 *279:8 3.78275e-05
50 *161:20 *288:10 5.31113e-05
51 *161:20 *485:22 6.50073e-05
52 *161:33 *1574:B2 0.000126439
53 *161:33 *288:10 0.00017096
54 *161:52 *1436:A 0.000814552
55 *161:52 *1582:A 9.67754e-05
56 *161:52 *1646:A 0.000224575
57 *161:52 *162:36 0.000178503
58 *161:52 *162:38 5.33005e-05
59 *161:52 *163:111 0.000119126
60 *161:52 *205:18 0.000124999
61 *161:52 *205:24 2.38501e-05
62 *161:52 *483:61 4.23557e-05
63 *161:66 *1532:A2_N 4.22135e-06
64 *161:66 *1646:C 0.000322312
65 *161:66 *266:155 0.000767453
66 *161:66 *383:177 0.000397734
67 *161:66 *479:20 0.00069799
68 *161:66 *483:32 3.2653e-05
69 *161:68 *1526:B2 4.58194e-05
70 *161:68 *261:10 4.20171e-05
71 *161:78 *1437:C1 0.000259476
72 *161:78 *1532:A1_N 2.75856e-05
73 *161:78 *1646:C 0.000167438
74 *161:86 *1524:A 0.000100074
75 *161:86 *1534:A1 0.000204168
76 *161:86 *245:12 3.90718e-05
77 *161:86 *251:16 0
78 *161:86 *266:155 6.8646e-06
79 *161:86 *380:103 0.00071024
80 *161:86 *390:113 0
81 *161:86 *466:20 0.000149345
82 *161:135 *1478:B2 2.42564e-05
83 *161:135 *1646:C 0
84 *161:135 *163:111 0.000178264
85 *1431:A1 *161:52 0.000113426
86 *1437:A1 *161:78 5.49544e-05
87 *1594:A2 *161:66 0.000313645
88 *1594:A2 *161:78 7.81371e-05
89 *1817:D *1514:B 0.000191028
90 *1817:RESET_B *1514:B 5.31167e-05
91 *1819:D *161:86 2.11336e-05
92 *149:70 *161:20 0.000376324
93 *149:70 *161:33 2.39044e-05
94 *149:126 *161:86 0.000354108
95 *149:141 *161:78 7.03959e-05
96 *153:41 *161:10 7.07171e-05
97 *153:41 *161:20 0.000176004
98 *158:8 *161:52 5.50052e-05
*RES
1 *1434:X *161:10 21.4607 
2 *161:10 *161:20 18.2143 
3 *161:20 *1563:B1 15.5679 
4 *161:20 *161:33 6.75 
5 *161:33 *1515:B 0.473214 
6 *161:33 *1438:B1 12.3 
7 *161:10 *161:52 23.6786 
8 *161:52 *161:66 36.0357 
9 *161:66 *161:68 0.946429 
10 *161:68 *161:78 13.8571 
11 *161:78 *161:86 23.5179 
12 *161:86 *1514:B 28.8929 
13 *161:86 *1518:B 9.3 
14 *161:78 *1437:B1 9.3 
15 *161:68 *1535:B 9.3 
16 *161:66 *1526:A2 13.0946 
17 *161:52 *161:135 12.7143 
18 *161:135 *1442:A2 17.2464 
19 *161:135 *1450:A2 13.8 
*END

*D_NET *162 0.0235758
*CONN
*I *1533:A I *D sky130_fd_sc_hd__clkbuf_4
*I *1551:A I *D sky130_fd_sc_hd__or3_1
*I *1571:A I *D sky130_fd_sc_hd__or3b_1
*I *1569:B1 I *D sky130_fd_sc_hd__o31a_1
*I *1541:A I *D sky130_fd_sc_hd__or2_1
*I *1594:B1 I *D sky130_fd_sc_hd__o31a_1
*I *1660:A2 I *D sky130_fd_sc_hd__a22o_1
*I *1553:A I *D sky130_fd_sc_hd__nor2_1
*I *1658:A2 I *D sky130_fd_sc_hd__a22o_1
*I *1436:A I *D sky130_fd_sc_hd__clkbuf_4
*I *1435:X O *D sky130_fd_sc_hd__clkbuf_4
*CAP
1 *1533:A 0.000145696
2 *1551:A 5.97856e-05
3 *1571:A 0.000568371
4 *1569:B1 8.5704e-05
5 *1541:A 7.17062e-05
6 *1594:B1 0
7 *1660:A2 4.14657e-05
8 *1553:A 0.000416234
9 *1658:A2 2.13113e-05
10 *1436:A 0.000169379
11 *1435:X 0.00025798
12 *162:126 0.00120867
13 *162:112 0.000940365
14 *162:95 0.00140378
15 *162:89 0.00140401
16 *162:56 0.000580667
17 *162:38 0.000208341
18 *162:36 0.00194736
19 *162:22 0.00255876
20 *162:8 0.00126221
21 *1436:A *1658:B2 9.83442e-05
22 *1436:A *279:6 8.46325e-05
23 *1436:A *485:22 0.000609056
24 *1533:A *259:14 5.33005e-05
25 *1533:A *381:56 0.000117881
26 *1541:A *266:155 1.58163e-05
27 *1551:A *1551:C 5.63821e-05
28 *1551:A *1552:A 4.19624e-06
29 *1551:A *1571:B 9.84729e-05
30 *1551:A *1841:A 2.06112e-05
31 *1551:A *266:161 4.17702e-05
32 *1553:A *1553:B 2.13661e-05
33 *1553:A *1742:A 0.000125102
34 *1553:A *238:10 2.09215e-05
35 *1553:A *277:6 0.000269428
36 *1553:A *277:17 0.000136951
37 *1569:B1 *1566:A1 5.50052e-05
38 *1569:B1 *1568:B1 5.66971e-05
39 *1569:B1 *1679:A0 7.30607e-05
40 *1569:B1 *463:29 4.75956e-06
41 *1571:A *1570:A1 9.83423e-06
42 *1571:A *1571:B 6.05161e-06
43 *1571:A *1572:B 1.80261e-05
44 *1571:A *1681:A0 2.04593e-05
45 *1571:A *382:170 7.7525e-05
46 *1571:A *462:19 7.27884e-05
47 *1660:A2 *1661:B1 4.58194e-05
48 *1660:A2 *303:133 5.22045e-05
49 *162:8 *1435:A 3.67257e-05
50 *162:8 *258:16 0.000109325
51 *162:22 *1538:B1 0.0002845
52 *162:22 *1646:C 0
53 *162:22 *1668:A1 9.39675e-05
54 *162:22 *1668:A2 9.14827e-05
55 *162:22 *1668:A3 6.05161e-06
56 *162:22 *1812:CLK 5.06479e-05
57 *162:22 *278:113 4.89924e-05
58 *162:22 *390:38 8.21423e-05
59 *162:22 *390:107 6.02752e-05
60 *162:36 *1517:A1 4.43393e-05
61 *162:36 *1824:A 7.06369e-05
62 *162:36 *1825:A 4.21517e-05
63 *162:36 *205:24 0.00015092
64 *162:36 *266:123 0
65 *162:36 *278:10 2.30558e-05
66 *162:36 *279:6 5.89668e-05
67 *162:36 *386:50 0.00031007
68 *162:38 *279:6 1.98839e-05
69 *162:56 *1742:A 0.000221536
70 *162:56 *238:10 9.48771e-05
71 *162:56 *238:19 1.12578e-05
72 *162:89 *259:14 7.74068e-05
73 *162:89 *278:111 5.5565e-05
74 *162:89 *278:113 6.95205e-05
75 *162:89 *390:107 0.000125665
76 *162:89 *466:14 0.00012249
77 *162:95 *1542:A2_N 7.58841e-05
78 *162:95 *259:14 0.000333061
79 *162:95 *259:18 0.00033829
80 *162:112 *1542:A2_N 8.72684e-05
81 *162:112 *1729:A 0.000155302
82 *162:112 *460:10 0
83 *162:126 *1560:A1 1.90936e-05
84 *162:126 *1571:B 0.000867853
85 *162:126 *1679:A0 5.00087e-06
86 *162:126 *1729:A 4.69987e-05
87 *162:126 *382:170 7.18114e-05
88 *162:126 *463:29 1.62193e-05
89 *1514:B *162:126 3.20731e-05
90 *1534:A3 *162:89 0
91 *1594:A2 *162:22 3.20389e-05
92 *1788:D *162:22 1.36589e-05
93 *1788:RESET_B *162:22 0.000179656
94 *1790:D *1553:A 7.6644e-05
95 *1816:D *1571:A 1.21258e-05
96 *149:104 *1569:B1 0.000145409
97 *149:104 *162:126 0.000790048
98 *149:118 *162:112 0.000716704
99 *149:118 *162:126 0.000478607
100 *161:20 *1436:A 5.49995e-05
101 *161:52 *1436:A 0.000814552
102 *161:52 *162:36 0.000178503
103 *161:52 *162:38 5.33005e-05
*RES
1 *1435:X *162:8 18.4429 
2 *162:8 *162:22 24.75 
3 *162:22 *162:36 18.4493 
4 *162:36 *162:38 0.535714 
5 *162:38 *1436:A 17.6393 
6 *162:38 *1658:A2 9.72857 
7 *162:36 *162:56 7.66071 
8 *162:56 *1553:A 20.4071 
9 *162:56 *1660:A2 14.7464 
10 *162:22 *1594:B1 13.8 
11 *162:8 *162:89 10.6964 
12 *162:89 *162:95 17.9821 
13 *162:95 *1541:A 14.7643 
14 *162:95 *162:112 5.79757 
15 *162:112 *162:126 22.5182 
16 *162:126 *1569:B1 16.4339 
17 *162:126 *1571:A 23.5592 
18 *162:112 *1551:A 18.8439 
19 *162:89 *1533:A 12.3179 
*END

*D_NET *163 0.0399578
*CONN
*I *1696:A2 I *D sky130_fd_sc_hd__a22o_1
*I *1695:B1 I *D sky130_fd_sc_hd__o21a_1
*I *1706:A1 I *D sky130_fd_sc_hd__a21oi_1
*I *1437:C1 I *D sky130_fd_sc_hd__o221ai_1
*I *1531:A2 I *D sky130_fd_sc_hd__a21oi_1
*I *1621:B2 I *D sky130_fd_sc_hd__a22o_1
*I *1626:B2 I *D sky130_fd_sc_hd__a22o_1
*I *1600:B2 I *D sky130_fd_sc_hd__a22o_1
*I *1610:B2 I *D sky130_fd_sc_hd__a22o_1
*I *1647:B2 I *D sky130_fd_sc_hd__a221o_1
*I *1436:X O *D sky130_fd_sc_hd__clkbuf_4
*CAP
1 *1696:A2 0.000597759
2 *1695:B1 0.000262777
3 *1706:A1 0
4 *1437:C1 0.000841355
5 *1531:A2 0
6 *1621:B2 0
7 *1626:B2 8.43397e-05
8 *1600:B2 0.00024178
9 *1610:B2 0
10 *1647:B2 2.90086e-05
11 *1436:X 0.00018298
12 *163:134 0.00175142
13 *163:124 0.00179016
14 *163:118 0.00123277
15 *163:111 0.00256421
16 *163:61 0.00272209
17 *163:51 0.00288649
18 *163:49 0.00354196
19 *163:22 0.00396956
20 *163:6 0.00344993
21 *1437:C1 *1532:A1_N 5.81579e-05
22 *1437:C1 *1532:A2_N 9.77118e-05
23 *1437:C1 *1706:A2 6.10501e-05
24 *1437:C1 *1706:B1 5.52238e-05
25 *1437:C1 *1771:CLK 7.29015e-05
26 *1437:C1 *390:113 9.67304e-05
27 *1600:B2 *1600:A2 0.000388542
28 *1600:B2 *1755:A 1.98839e-05
29 *1600:B2 *325:14 8.74795e-05
30 *1600:B2 *388:65 0.000187253
31 *1600:B2 *469:37 0.000124749
32 *1647:B2 *263:43 3.03567e-05
33 *1647:B2 *473:8 1.38323e-05
34 *1647:B2 *491:61 2.38282e-05
35 *1696:A2 *1531:B1 9.58689e-05
36 *1696:A2 *278:123 0.000975471
37 *1696:A2 *278:125 0.000608528
38 *1696:A2 *321:23 0.00172737
39 *1696:A2 *492:14 0.000136733
40 *163:6 *1659:B1 0.000268828
41 *163:22 *1660:A1 0
42 *163:22 *1790:CLK 0
43 *163:22 *239:49 0
44 *163:22 *277:17 0
45 *163:22 *389:10 0
46 *163:22 *389:25 3.22964e-05
47 *163:22 *491:61 4.15161e-05
48 *163:49 *1621:B1 2.06741e-05
49 *163:49 *1647:B1 4.64983e-05
50 *163:49 *1647:C1 0.00011716
51 *163:49 *1659:A3 0
52 *163:49 *1679:A0 3.61654e-05
53 *163:49 *349:16 0.000453741
54 *163:49 *461:14 3.49187e-05
55 *163:51 *1621:B1 5.80706e-06
56 *163:51 *1832:A 4.06003e-05
57 *163:51 *338:10 0
58 *163:51 *461:14 0.000316535
59 *163:61 *1650:A1 0.000242861
60 *163:61 *1652:A1 0.000463959
61 *163:61 *1652:A2 1.84776e-05
62 *163:61 *1683:A0 9.58632e-05
63 *163:61 *1792:CLK 6.21627e-05
64 *163:61 *1833:A 5.66472e-05
65 *163:61 *388:41 0.000328871
66 *163:61 *388:65 0.000672577
67 *163:61 *490:10 0.000220159
68 *163:111 *1531:A1 8.27748e-05
69 *163:111 *1531:B1 8.10737e-06
70 *163:111 *1646:A 6.3629e-05
71 *163:111 *1659:B1 0.000563224
72 *163:111 *205:18 0.000239718
73 *163:111 *258:16 0.000402105
74 *163:111 *279:6 0.000200621
75 *163:111 *303:10 5.49995e-05
76 *163:111 *472:18 3.21189e-05
77 *163:111 *483:61 0.000267137
78 *163:118 *1531:B1 5.49995e-05
79 *163:124 *1636:A0 0.000146744
80 *163:124 *256:59 0
81 *163:124 *321:23 0.00131352
82 *163:124 *359:16 0
83 *163:124 *472:12 3.79336e-05
84 *163:124 *493:12 4.15914e-05
85 *163:134 *1706:A2 5.08076e-05
86 *163:134 *259:98 0
87 *163:134 *278:111 8.00806e-05
88 *1431:A1 *163:111 8.74903e-05
89 *1431:A2 *163:111 5.33005e-05
90 *1548:A1 *1437:C1 6.29133e-05
91 *1771:D *163:134 0.000188754
92 *1773:D *1695:B1 0.000100684
93 *1797:D *163:22 3.25078e-05
94 *1797:RESET_B *163:22 0.000105092
95 *1809:D *1600:B2 0.000182728
96 *1809:D *163:61 0.000203231
97 *1812:RESET_B *163:124 0
98 *149:141 *1437:C1 1.21289e-05
99 *153:41 *1647:B2 4.37992e-05
100 *153:41 *163:22 0.000101615
101 *161:52 *163:111 0.000119126
102 *161:78 *1437:C1 0.000259476
103 *161:135 *163:111 0.000178264
*RES
1 *1436:X *163:6 11.8893 
2 *163:6 *163:22 24.4554 
3 *163:22 *1647:B2 14.6661 
4 *163:22 *163:49 20.2677 
5 *163:49 *163:51 7.10714 
6 *163:51 *163:61 42.6429 
7 *163:61 *1610:B2 9.3 
8 *163:61 *1600:B2 26.1214 
9 *163:51 *1626:B2 15.1571 
10 *163:49 *1621:B2 13.8 
11 *163:6 *163:111 41.2857 
12 *163:111 *1531:A2 9.3 
13 *163:111 *163:118 0.535714 
14 *163:118 *163:124 25.8214 
15 *163:124 *163:134 20.6429 
16 *163:134 *1437:C1 21.2821 
17 *163:134 *1706:A1 9.3 
18 *163:124 *1695:B1 13.9429 
19 *163:118 *1696:A2 43.0143 
*END

*D_NET *164 0.00074892
*CONN
*I *1532:A1_N I *D sky130_fd_sc_hd__a2bb2o_1
*I *1437:Y O *D sky130_fd_sc_hd__o221ai_1
*CAP
1 *1532:A1_N 0.000102664
2 *1437:Y 0.000102664
3 *1532:A1_N *1532:A2_N 5.49544e-05
4 *1532:A1_N *390:113 0.000139631
5 *1437:A1 *1532:A1_N 2.83627e-05
6 *1437:C1 *1532:A1_N 5.81579e-05
7 *149:141 *1532:A1_N 7.98851e-05
8 *153:104 *1532:A1_N 5.65955e-05
9 *153:117 *1532:A1_N 9.84196e-05
10 *161:78 *1532:A1_N 2.75856e-05
*RES
1 *1437:Y *1532:A1_N 22.7071 
*END

*D_NET *165 0.00427058
*CONN
*I *1544:A1 I *D sky130_fd_sc_hd__o21bai_2
*I *1523:A1 I *D sky130_fd_sc_hd__o21bai_2
*I *1557:B1 I *D sky130_fd_sc_hd__a21o_1
*I *1438:X O *D sky130_fd_sc_hd__o41a_1
*CAP
1 *1544:A1 0
2 *1523:A1 0.000173826
3 *1557:B1 0.000101817
4 *1438:X 0.000891353
5 *165:29 0.000299799
6 *165:10 0.00111914
7 *1523:A1 *1523:A2 0.000100182
8 *1523:A1 *1523:B1_N 0.000181796
9 *1523:A1 *244:10 2.83284e-06
10 *1523:A1 *250:6 4.87854e-05
11 *1523:A1 *269:31 1.21289e-05
12 *1523:A1 *278:10 4.33437e-05
13 *1557:B1 *1517:B1 6.15171e-05
14 *1557:B1 *1520:A2 0.000150625
15 *1557:B1 *1742:A 1.00375e-05
16 *1557:B1 *173:107 6.15222e-05
17 *1557:B1 *389:157 0
18 *165:10 *1559:B1 1.65169e-05
19 *165:10 *1559:B2 0.00018548
20 *165:10 *1574:A1 9.77072e-05
21 *165:10 *1742:A 1.59827e-05
22 *165:10 *173:107 0.000108405
23 *165:10 *242:10 5.52238e-05
24 *165:10 *254:99 1.80285e-05
25 *165:10 *269:12 5.97401e-05
26 *165:10 *462:32 4.51611e-05
27 *165:29 *1520:A2 0.000141985
28 *165:29 *1544:B1_N 0.000137515
29 *165:29 *269:12 5.52238e-05
30 *1438:B1 *165:10 3.97677e-05
31 *1520:A1 *165:29 3.51368e-05
*RES
1 *1438:X *165:10 25.6214 
2 *165:10 *1557:B1 16.5857 
3 *165:10 *165:29 8.35714 
4 *165:29 *1523:A1 22.4429 
5 *165:29 *1544:A1 9.3 
*END

*D_NET *166 0.00984822
*CONN
*I *1440:A I *D sky130_fd_sc_hd__and3_1
*I *1506:A1 I *D sky130_fd_sc_hd__a211o_1
*I *1451:A1 I *D sky130_fd_sc_hd__a21oi_2
*I *1454:A I *D sky130_fd_sc_hd__nand2_2
*I *1461:A I *D sky130_fd_sc_hd__nand3_1
*I *1496:A1 I *D sky130_fd_sc_hd__a211o_1
*I *1481:C1 I *D sky130_fd_sc_hd__a211o_1
*I *1485:C1 I *D sky130_fd_sc_hd__a211o_1
*I *1484:A2 I *D sky130_fd_sc_hd__o21ai_1
*I *1480:A2 I *D sky130_fd_sc_hd__o21ai_1
*I *1439:X O *D sky130_fd_sc_hd__clkbuf_4
*CAP
1 *1440:A 0.000313752
2 *1506:A1 1.69531e-05
3 *1451:A1 4.29478e-05
4 *1454:A 6.8579e-05
5 *1461:A 3.03498e-05
6 *1496:A1 0
7 *1481:C1 6.52818e-05
8 *1485:C1 0
9 *1484:A2 6.44543e-05
10 *1480:A2 6.80801e-05
11 *1439:X 0
12 *166:104 0.000387843
13 *166:73 0.000194675
14 *166:71 0.000221563
15 *166:69 0.000566825
16 *166:47 0.00016948
17 *166:36 0.00041421
18 *166:12 0.000132534
19 *166:10 0.000906319
20 *166:4 0.00102313
21 *1440:A *1429:B 0.000111067
22 *1440:A *1430:A_N 0.000135028
23 *1440:A *172:68 0
24 *1440:A *259:129 1.04707e-05
25 *1440:A *303:20 0.000183841
26 *1440:A *480:94 8.6229e-06
27 *1440:A *492:42 0
28 *1451:A1 *1461:C 0.000135028
29 *1454:A *1458:A1 1.15281e-05
30 *1454:A *1609:A3 0.000183726
31 *1461:A *259:129 5.31158e-05
32 *1461:A *492:44 1.65758e-05
33 *1480:A2 *1480:B1 1.24368e-05
34 *1480:A2 *207:10 5.71472e-05
35 *1481:C1 *1481:B1 0.000179883
36 *1484:A2 *1480:B1 5.33005e-05
37 *1484:A2 *478:53 4.27935e-05
38 *1506:A1 *1507:C 5.33005e-05
39 *166:10 *263:92 0.000826432
40 *166:10 *478:36 7.6644e-05
41 *166:10 *486:70 2.79092e-05
42 *166:36 *1484:B1 0.000178678
43 *166:36 *1496:A2 1.00887e-05
44 *166:36 *478:36 3.17148e-05
45 *166:36 *486:70 1.18927e-05
46 *166:47 *1496:A2 0.00020668
47 *166:47 *228:39 8.79617e-05
48 *166:69 *263:92 0.000593352
49 *166:71 *259:129 0.000234384
50 *166:71 *480:94 0.00010326
51 *166:73 *259:129 0.000162118
52 *166:73 *492:44 3.52655e-05
53 *166:104 *259:129 0.000136156
54 *166:104 *480:94 0.000145406
55 *1440:B *1440:A 8.25843e-06
56 *1440:C *1440:A 0.000178503
57 *1447:C *1440:A 2.28343e-05
58 *1454:B *1454:A 0.000176072
59 *1481:A1 *1481:C1 5.49995e-05
60 *148:16 *1451:A1 0.000135028
61 *148:26 *166:71 7.25296e-05
62 *148:26 *166:73 2.84398e-05
63 *148:35 *1506:A1 5.33005e-05
64 *148:43 *1480:A2 1.02821e-05
65 *150:48 *166:36 1.16198e-05
66 *150:48 *166:47 5.54817e-06
67 *151:26 *1481:C1 7.98297e-05
68 *151:26 *166:47 4.45982e-06
69 *152:12 *166:36 5.35514e-05
70 *155:26 *1454:A 0
71 *156:12 *1440:A 0.00015018
*RES
1 *1439:X *166:4 9.3 
2 *166:4 *166:10 13.4643 
3 *166:10 *166:12 4.5 
4 *166:12 *1480:A2 10.2464 
5 *166:12 *1484:A2 10.2464 
6 *166:10 *166:36 10.3689 
7 *166:36 *1485:C1 13.8 
8 *166:36 *166:47 7.35714 
9 *166:47 *1481:C1 12.05 
10 *166:47 *1496:A1 9.3 
11 *166:4 *166:69 10.375 
12 *166:69 *166:71 3.16071 
13 *166:71 *166:73 2.25 
14 *166:73 *1461:A 14.5321 
15 *166:73 *1454:A 16.3 
16 *166:71 *1451:A1 15.1571 
17 *166:69 *166:104 1.94643 
18 *166:104 *1506:A1 14.3357 
19 *166:104 *1440:A 21.2643 
*END

*D_NET *167 0.00272074
*CONN
*I *1441:B I *D sky130_fd_sc_hd__nand3b_1
*I *1449:A1 I *D sky130_fd_sc_hd__o21ai_1
*I *1440:X O *D sky130_fd_sc_hd__and3_1
*CAP
1 *1441:B 0.000403848
2 *1449:A1 0.000109277
3 *1440:X 0.000315431
4 *167:10 0.000828556
5 *1441:B *1450:B1 0
6 *1441:B *1475:A 6.27272e-06
7 *1441:B *172:48 0.000205332
8 *1441:B *172:68 0.000137939
9 *1441:B *193:71 5.7128e-05
10 *1441:B *361:28 0
11 *1441:B *482:91 8.06687e-05
12 *1441:B *482:104 4.6025e-06
13 *1449:A1 *1450:B1 4.87854e-05
14 *1449:A1 *238:8 0.000112985
15 *1449:A1 *266:119 3.18676e-05
16 *167:10 *172:68 0.000313908
17 *1440:C *167:10 6.41415e-05
*RES
1 *1440:X *167:10 19.2286 
2 *167:10 *1449:A1 16.4071 
3 *167:10 *1441:B 21.8714 
*END

*D_NET *168 0.00225854
*CONN
*I *1450:A3 I *D sky130_fd_sc_hd__a32oi_1
*I *1442:A1 I *D sky130_fd_sc_hd__a21oi_1
*I *1441:Y O *D sky130_fd_sc_hd__nand3b_1
*CAP
1 *1450:A3 0.000261889
2 *1442:A1 9.93786e-05
3 *1441:Y 0.000165906
4 *168:10 0.000527174
5 *1442:A1 *1478:A1 0.000100296
6 *1442:A1 *1646:C 2.07517e-05
7 *1442:A1 *197:6 4.48647e-05
8 *1442:A1 *473:32 0.000183477
9 *1450:A3 *1450:A1 0.000179829
10 *1450:A3 *1450:B1 3.27966e-05
11 *1450:A3 *1450:B2 0.000100447
12 *1450:A3 *1478:A2 4.15263e-05
13 *1450:A3 *1478:B2 1.85621e-05
14 *1450:A3 *1594:A1 0.000145061
15 *1450:A3 *1646:C 4.34952e-05
16 *1450:A3 *193:71 9.40167e-05
17 *168:10 *193:71 0.000170654
18 *168:10 *201:6 2.84109e-05
*RES
1 *1441:Y *168:10 16.5857 
2 *168:10 *1442:A1 16.3893 
3 *168:10 *1450:A3 20.2286 
*END

*D_NET *169 0.000566548
*CONN
*I *1478:A1 I *D sky130_fd_sc_hd__o22a_1
*I *1442:Y O *D sky130_fd_sc_hd__a21oi_1
*CAP
1 *1478:A1 0.000130855
2 *1442:Y 0.000130855
3 *1478:A1 *1450:B1 1.3457e-05
4 *1478:A1 *1646:C 0.000115598
5 *1478:A1 *473:38 7.54868e-05
6 *1442:A1 *1478:A1 0.000100296
*RES
1 *1442:Y *1478:A1 30.2161 
*END

*D_NET *170 0.00908935
*CONN
*I *1444:A2 I *D sky130_fd_sc_hd__o21ai_1
*I *1527:A I *D sky130_fd_sc_hd__nand2_4
*I *1458:A2 I *D sky130_fd_sc_hd__o211a_1
*I *1455:A2 I *D sky130_fd_sc_hd__o21a_1
*I *1463:A1 I *D sky130_fd_sc_hd__o21ai_1
*I *1489:A2 I *D sky130_fd_sc_hd__o211ai_1
*I *1443:Y O *D sky130_fd_sc_hd__inv_2
*CAP
1 *1444:A2 0.000732308
2 *1527:A 0
3 *1458:A2 0.000240281
4 *1455:A2 5.46682e-05
5 *1463:A1 0
6 *1489:A2 0.000296943
7 *1443:Y 0
8 *170:50 0.00093507
9 *170:31 0.000820249
10 *170:25 0.00024344
11 *170:21 0.00100721
12 *170:4 0.000508533
13 *1444:A2 *1424:A 0.000100989
14 *1444:A2 *1429:A 1.46148e-05
15 *1444:A2 *1429:B 0.000107374
16 *1444:A2 *1444:A1 5.50052e-05
17 *1444:A2 *1462:A1 0.000122645
18 *1444:A2 *266:28 0.00012852
19 *1444:A2 *481:37 9.13301e-05
20 *1455:A2 *1453:B1_N 2.36643e-05
21 *1455:A2 *1455:A1 5.65955e-05
22 *1455:A2 *1456:B1 5.07157e-05
23 *1455:A2 *181:23 0.000142129
24 *1458:A2 *1452:A 5.7903e-06
25 *1458:A2 *1458:B1 1.02132e-05
26 *1458:A2 *1609:A3 2.12087e-05
27 *1458:A2 *179:40 0.000111738
28 *1458:A2 *181:10 0
29 *1458:A2 *181:53 0
30 *1458:A2 *185:18 0.00018172
31 *1489:A2 *1489:A1 0.000223558
32 *1489:A2 *254:33 0.000183477
33 *1489:A2 *480:33 0.000352228
34 *1489:A2 *492:68 7.12598e-05
35 *170:21 *254:33 0.000272371
36 *170:25 *254:10 6.98302e-05
37 *170:25 *254:33 7.6644e-05
38 *170:31 *1464:B1 7.43578e-06
39 *170:31 *254:10 9.25014e-06
40 *170:31 *266:28 1.46717e-05
41 *170:31 *492:66 0.000273269
42 *170:50 *1464:B1 3.18676e-05
43 *170:50 *266:28 0
44 *170:50 *480:41 3.91193e-05
45 *170:50 *480:56 3.57043e-05
46 *170:50 *481:59 0.000241169
47 *170:50 *492:58 2.34077e-05
48 *170:50 *492:66 4.38128e-05
49 *1453:A2 *1458:A2 8.61344e-05
50 *148:16 *1444:A2 7.36934e-05
51 *148:16 *170:25 7.50601e-05
52 *148:16 *170:31 0.00016884
53 *148:16 *170:50 0
54 *154:19 *1444:A2 0.000422741
55 *155:8 *1444:A2 8.08476e-06
56 *156:12 *1444:A2 0.00022277
*RES
1 *1443:Y *170:4 9.3 
2 *170:4 *1489:A2 24.8179 
3 *170:4 *170:21 3 
4 *170:21 *170:25 6.44643 
5 *170:25 *170:31 9.33929 
6 *170:31 *1463:A1 9.3 
7 *170:31 *170:50 13.7611 
8 *170:50 *1455:A2 15.8893 
9 *170:50 *1458:A2 18.9607 
10 *170:25 *1527:A 13.8 
11 *170:21 *1444:A2 33.4786 
*END

*D_NET *171 0.00116578
*CONN
*I *1449:A2 I *D sky130_fd_sc_hd__o21ai_1
*I *1444:Y O *D sky130_fd_sc_hd__o21ai_1
*CAP
1 *1449:A2 0.000212601
2 *1444:Y 0.000212601
3 *1449:A2 *1444:B1 0.000192997
4 *1449:A2 *303:20 0
5 *1449:A2 *482:50 0.000139653
6 *1449:A2 *482:52 0.000116194
7 *1447:C *1449:A2 0.00014322
8 *156:12 *1449:A2 0.000148514
*RES
1 *1444:Y *1449:A2 33.4929 
*END

*D_NET *172 0.0136388
*CONN
*I *1446:A I *D sky130_fd_sc_hd__clkbuf_4
*I *1504:A3 I *D sky130_fd_sc_hd__a31o_1
*I *1462:A1 I *D sky130_fd_sc_hd__a21oi_1
*I *1505:A1 I *D sky130_fd_sc_hd__a21o_1
*I *1467:A1 I *D sky130_fd_sc_hd__a21oi_2
*I *1475:C I *D sky130_fd_sc_hd__and3_1
*I *1472:A2 I *D sky130_fd_sc_hd__o22ai_1
*I *1497:B1 I *D sky130_fd_sc_hd__o31ai_1
*I *1445:Y O *D sky130_fd_sc_hd__nand2_4
*CAP
1 *1446:A 0
2 *1504:A3 8.47697e-05
3 *1462:A1 0.000395064
4 *1505:A1 0.000246495
5 *1467:A1 0.000226509
6 *1475:C 0
7 *1472:A2 8.59659e-05
8 *1497:B1 0.000571256
9 *1445:Y 0
10 *172:87 0.000500229
11 *172:68 0.000880692
12 *172:48 0.000604108
13 *172:38 0.00137355
14 *172:21 0.00105233
15 *172:6 0.00115547
16 *1462:A1 *263:92 0.00023389
17 *1462:A1 *266:28 0
18 *1462:A1 *480:41 1.02504e-05
19 *1462:A1 *480:94 0.000178847
20 *1462:A1 *481:47 1.91414e-05
21 *1467:A1 *1468:B1 2.75104e-05
22 *1467:A1 *1476:A2 0.000149316
23 *1467:A1 *194:23 3.99614e-06
24 *1467:A1 *195:12 0.000397271
25 *1467:A1 *482:44 6.04271e-06
26 *1472:A2 *174:10 0.000173097
27 *1472:A2 *255:35 4.02462e-05
28 *1472:A2 *303:20 0
29 *1497:B1 *1420:B 0
30 *1497:B1 *1427:A 1.50087e-05
31 *1497:B1 *1427:B 6.97972e-05
32 *1497:B1 *1481:B1 0.00013478
33 *1497:B1 *1498:A 0.000180429
34 *1497:B1 *223:14 0
35 *1497:B1 *225:14 0.000100777
36 *1497:B1 *228:39 5.80494e-05
37 *1497:B1 *478:53 0.000194847
38 *1497:B1 *484:10 0
39 *1504:A3 *1504:A2 9.83442e-05
40 *1504:A3 *263:92 0.000397145
41 *1504:A3 *480:94 0.000339548
42 *1505:A1 *1504:A1 1.71144e-05
43 *1505:A1 *1507:A 2.84109e-05
44 *1505:A1 *179:14 4.46186e-06
45 *1505:A1 *181:53 2.38651e-06
46 *1505:A1 *492:44 7.03243e-05
47 *172:21 *173:20 0.000314201
48 *172:21 *255:35 5.8649e-05
49 *172:21 *484:8 0
50 *172:21 *484:10 0
51 *172:38 *173:20 3.65607e-05
52 *172:38 *255:35 0.000437749
53 *172:48 *1472:B2 1.96329e-05
54 *172:48 *361:42 8.3882e-05
55 *172:48 *482:44 7.36773e-07
56 *172:48 *482:50 0.000196269
57 *172:48 *482:91 7.95909e-05
58 *172:68 *1444:B1 9.56362e-05
59 *172:68 *1449:B1 0.000127446
60 *172:68 *1507:A 0
61 *172:68 *173:162 0
62 *172:68 *482:50 0.000104813
63 *172:68 *482:52 6.1169e-05
64 *172:68 *492:42 0.000134667
65 *172:68 *492:44 0.000107273
66 *172:87 *263:92 5.39653e-06
67 *1440:A *172:68 0
68 *1441:B *172:48 0.000205332
69 *1441:B *172:68 0.000137939
70 *1444:A2 *1462:A1 0.000122645
71 *1453:A2 *1505:A1 3.08664e-05
72 *3:23 *1497:B1 8.14155e-05
73 *3:23 *172:21 0.000113887
74 *150:48 *1497:B1 7.69776e-06
75 *151:26 *1497:B1 0.000120339
76 *152:12 *1497:B1 0.000165143
77 *154:19 *1462:A1 9.25014e-06
78 *155:18 *1462:A1 0.000167691
79 *155:26 *1462:A1 0.000171512
80 *167:10 *172:68 0.000313908
*RES
1 *1445:Y *172:6 13.8 
2 *172:6 *1497:B1 27.5857 
3 *172:6 *172:21 15.2857 
4 *172:21 *1472:A2 20.55 
5 *172:21 *172:38 9.98214 
6 *172:38 *172:48 11.8929 
7 *172:48 *1475:C 9.3 
8 *172:48 *1467:A1 15.2643 
9 *172:38 *172:68 13.7857 
10 *172:68 *1505:A1 17.9607 
11 *172:68 *172:87 4.92857 
12 *172:87 *1462:A1 27.925 
13 *172:87 *1504:A3 13.5321 
14 *172:21 *1446:A 9.3 
*END

*D_NET *173 0.0267527
*CONN
*I *1468:A3 I *D sky130_fd_sc_hd__a31o_1
*I *1448:A1 I *D sky130_fd_sc_hd__a21o_1
*I *1503:A1 I *D sky130_fd_sc_hd__a21oi_2
*I *1609:A2 I *D sky130_fd_sc_hd__a31o_1
*I *1549:A2 I *D sky130_fd_sc_hd__a31o_1
*I *1559:A1 I *D sky130_fd_sc_hd__a22o_1
*I *1574:A1 I *D sky130_fd_sc_hd__a22o_1
*I *1528:A I *D sky130_fd_sc_hd__nand2_2
*I *1620:A2 I *D sky130_fd_sc_hd__a32o_1
*I *1625:A2 I *D sky130_fd_sc_hd__a32o_1
*I *1446:X O *D sky130_fd_sc_hd__clkbuf_4
*CAP
1 *1468:A3 0.000170835
2 *1448:A1 7.43077e-05
3 *1503:A1 0
4 *1609:A2 0.000266112
5 *1549:A2 0.000255285
6 *1559:A1 0
7 *1574:A1 0.000945952
8 *1528:A 2.28509e-05
9 *1620:A2 7.3705e-05
10 *1625:A2 0.000614311
11 *1446:X 0
12 *173:162 0.00087977
13 *173:158 0.00102169
14 *173:152 0.000851707
15 *173:107 0.00215348
16 *173:91 0.00249397
17 *173:75 0.00145499
18 *173:30 0.0016276
19 *173:20 0.00238453
20 *173:4 0.00149878
21 *1448:A1 *1448:A2 4.22284e-05
22 *1448:A1 *1448:B1 3.99614e-06
23 *1448:A1 *229:16 0.000185118
24 *1468:A3 *1450:B1 5.93717e-05
25 *1468:A3 *1468:A2 5.28738e-05
26 *1468:A3 *193:71 0
27 *1528:A *255:10 8.08022e-05
28 *1549:A2 *1525:A1 0.000133715
29 *1549:A2 *1549:A3 2.11419e-05
30 *1549:A2 *251:16 2.82057e-05
31 *1549:A2 *460:10 0
32 *1574:A1 *1549:A3 3.4846e-06
33 *1574:A1 *1559:B1 6.03333e-05
34 *1574:A1 *1562:B 3.06878e-06
35 *1574:A1 *1562:C_N 8.35313e-05
36 *1574:A1 *1576:B1 4.53889e-05
37 *1574:A1 *254:99 3.17419e-05
38 *1574:A1 *278:42 0
39 *1574:A1 *389:157 8.42226e-05
40 *1609:A2 *1461:C 0
41 *1609:A2 *1503:B1 0.000141734
42 *1609:A2 *1609:B1 2.28428e-05
43 *1609:A2 *178:12 0.000256069
44 *1609:A2 *178:33 1.41029e-05
45 *1609:A2 *185:18 0.000174844
46 *1609:A2 *230:6 0.000133496
47 *1609:A2 *469:37 0.000194833
48 *1620:A2 *1621:B1 4.67875e-05
49 *1625:A2 *1620:A3 4.12281e-05
50 *1625:A2 *1624:B1 0.000148196
51 *1625:A2 *1625:A3 0.000184517
52 *1625:A2 *1645:B1 9.96264e-05
53 *1625:A2 *1645:B2 0.000157151
54 *1625:A2 *254:48 0.0004108
55 *1625:A2 *383:48 0
56 *1625:A2 *461:27 0.000149911
57 *1625:A2 *467:31 6.79366e-05
58 *173:20 *238:10 0
59 *173:20 *255:35 0.000554699
60 *173:20 *361:42 0.000838989
61 *173:20 *484:8 0.00012401
62 *173:30 *1501:B1_N 0.000144988
63 *173:30 *1615:C1 0.000154762
64 *173:30 *1620:A3 6.01243e-05
65 *173:30 *209:14 2.4741e-05
66 *173:30 *254:63 0.000452232
67 *173:30 *361:42 0.000229908
68 *173:30 *383:48 0
69 *173:75 *255:35 4.70078e-05
70 *173:91 *1469:A 0.000123126
71 *173:91 *1472:B2 4.15914e-05
72 *173:91 *1525:A2 0.000102103
73 *173:91 *1646:A 0.000360938
74 *173:91 *252:12 5.80706e-06
75 *173:91 *256:21 0
76 *173:91 *266:119 0.000194825
77 *173:91 *266:155 0.000122788
78 *173:91 *303:20 0.00018867
79 *173:91 *390:14 0.000366775
80 *173:91 *473:25 0.000168939
81 *173:91 *483:61 0.000204827
82 *173:107 *1517:B1 5.49489e-05
83 *173:107 *1520:B1 0.000122091
84 *173:107 *1525:A2 0.000129837
85 *173:107 *1557:A1 1.57023e-05
86 *173:107 *1557:A2 0.000137546
87 *173:107 *1558:B1 0.000101227
88 *173:107 *246:33 0.000100625
89 *173:107 *389:157 0
90 *173:152 *255:35 0.00020662
91 *173:158 *1450:B1 0.000173804
92 *173:158 *1608:A 0
93 *173:158 *193:71 0
94 *173:162 *1504:A1 2.30245e-05
95 *173:162 *1507:A 0.000326074
96 *173:162 *1507:B 0
97 *173:162 *1607:B1 0
98 *173:162 *1608:A 0
99 *173:162 *181:53 4.13122e-06
100 *173:162 *228:39 2.97537e-05
101 *173:162 *480:75 1.02504e-05
102 *173:162 *480:88 0.000140361
103 *1453:A2 *1609:A2 1.24368e-05
104 *1557:B1 *173:107 6.15222e-05
105 *153:41 *1528:A 8.08022e-05
106 *165:10 *1574:A1 9.77072e-05
107 *165:10 *173:107 0.000108405
108 *172:21 *173:20 0.000314201
109 *172:38 *173:20 3.65607e-05
110 *172:68 *173:162 0
*RES
1 *1446:X *173:4 9.3 
2 *173:4 *173:20 33.9464 
3 *173:20 *173:30 23.5893 
4 *173:30 *1625:A2 27.2643 
5 *173:30 *1620:A2 15.175 
6 *173:20 *1528:A 19.3357 
7 *173:4 *173:75 1.35714 
8 *173:75 *173:91 33.5804 
9 *173:91 *173:107 26.7411 
10 *173:107 *1574:A1 32.8714 
11 *173:107 *1559:A1 9.3 
12 *173:91 *1549:A2 22.7018 
13 *173:75 *173:152 10.375 
14 *173:152 *173:158 6.55357 
15 *173:158 *173:162 16.1607 
16 *173:162 *1609:A2 25.9429 
17 *173:162 *1503:A1 9.3 
18 *173:158 *1448:A1 15.9964 
19 *173:152 *1468:A3 16.8179 
*END

*D_NET *174 0.0072001
*CONN
*I *1448:A2 I *D sky130_fd_sc_hd__a21o_1
*I *1473:A2 I *D sky130_fd_sc_hd__o21a_2
*I *1472:B1 I *D sky130_fd_sc_hd__o22ai_1
*I *1467:A2 I *D sky130_fd_sc_hd__a21oi_2
*I *1468:A1 I *D sky130_fd_sc_hd__a31o_1
*I *1475:A I *D sky130_fd_sc_hd__and3_1
*I *1447:Y O *D sky130_fd_sc_hd__nand3_4
*CAP
1 *1448:A2 0.000559932
2 *1473:A2 0.00023674
3 *1472:B1 6.29034e-05
4 *1467:A2 0.000104814
5 *1468:A1 2.74037e-05
6 *1475:A 1.44051e-05
7 *1447:Y 7.40396e-05
8 *174:53 0.000318576
9 *174:27 0.000446811
10 *174:14 0.000933599
11 *174:10 0.000885854
12 *174:6 0.000896292
13 *1448:A2 *1448:B1 7.50256e-05
14 *1448:A2 *229:16 2.8626e-05
15 *1467:A2 *1468:B1 2.06112e-05
16 *1467:A2 *193:71 5.7836e-06
17 *1467:A2 *361:28 0.000140077
18 *1468:A1 *1468:A2 9.54798e-06
19 *1468:A1 *1468:B1 2.07728e-05
20 *1472:B1 *1474:A1 5.80553e-05
21 *1472:B1 *361:42 9.22616e-06
22 *1473:A2 *1470:A1 6.03618e-05
23 *1473:A2 *1472:A1 6.2169e-06
24 *1473:A2 *1474:A1 6.48068e-05
25 *1473:A2 *1474:A2 0
26 *1473:A2 *303:20 0
27 *174:10 *1472:A1 7.69776e-06
28 *174:10 *266:28 2.69614e-05
29 *174:10 *303:20 0
30 *174:14 *1647:C1 0.000251256
31 *174:27 *1647:C1 4.68271e-05
32 *174:27 *361:28 0.000326498
33 *174:53 *1472:A1 5.77757e-06
34 *1441:B *1475:A 6.27272e-06
35 *1447:A *1448:A2 3.67257e-05
36 *1447:B *1448:A2 2.44318e-05
37 *1447:B *174:6 5.17614e-05
38 *1447:C *1448:A2 6.36515e-05
39 *1448:A1 *1448:A2 4.22284e-05
40 *1470:B1 *1473:A2 0.000103253
41 *1472:A2 *174:10 0.000173097
42 *1473:B1 *1473:A2 5.54817e-06
43 *157:12 *1473:A2 0.000348287
44 *157:12 *174:10 0.00053661
45 *157:12 *174:53 1.12323e-05
46 *157:23 *1473:A2 1.18064e-05
47 *160:8 *1473:A2 4.60858e-05
48 *160:35 *1473:A2 1.36073e-05
*RES
1 *1447:Y *174:6 10.2464 
2 *174:6 *174:10 11.4554 
3 *174:10 *174:14 4.61007 
4 *174:14 *1475:A 17.4868 
5 *174:14 *174:27 0.6956 
6 *174:27 *1468:A1 17.7904 
7 *174:27 *1467:A2 17.75 
8 *174:10 *174:53 0.276786 
9 *174:53 *1472:B1 14.7464 
10 *174:53 *1473:A2 20.6036 
11 *174:6 *1448:A2 17.8179 
*END

*D_NET *175 0.000331028
*CONN
*I *1449:B1 I *D sky130_fd_sc_hd__o21ai_1
*I *1448:X O *D sky130_fd_sc_hd__a21o_1
*CAP
1 *1449:B1 3.8068e-05
2 *1448:X 3.8068e-05
3 *1449:B1 *482:50 0.000127446
4 *172:68 *1449:B1 0.000127446
*RES
1 *1448:X *1449:B1 29.2429 
*END

*D_NET *176 0.00264529
*CONN
*I *1450:B1 I *D sky130_fd_sc_hd__a32oi_1
*I *1449:Y O *D sky130_fd_sc_hd__o21ai_1
*CAP
1 *1450:B1 0.000948889
2 *1449:Y 0.000948889
3 *1450:B1 *1450:B2 3.27966e-05
4 *1450:B1 *1468:B1 0
5 *1450:B1 *1478:B2 0
6 *1450:B1 *1647:C1 0.000158557
7 *1450:B1 *193:71 0
8 *1450:B1 *238:8 6.52148e-05
9 *1450:B1 *361:28 8.22793e-06
10 *1450:B1 *473:38 5.42961e-05
11 *1441:B *1450:B1 0
12 *1442:A2 *1450:B1 0.000100204
13 *1449:A1 *1450:B1 4.87854e-05
14 *1450:A3 *1450:B1 3.27966e-05
15 *1468:A3 *1450:B1 5.93717e-05
16 *1478:A1 *1450:B1 1.3457e-05
17 *173:158 *1450:B1 0.000173804
*RES
1 *1449:Y *1450:B1 43.2161 
*END

*D_NET *177 0.000368197
*CONN
*I *1478:A2 I *D sky130_fd_sc_hd__o22a_1
*I *1450:Y O *D sky130_fd_sc_hd__a32oi_1
*CAP
1 *1478:A2 4.24242e-05
2 *1450:Y 4.24242e-05
3 *1478:A2 *1450:B2 5.66472e-05
4 *1478:A2 *1478:B2 0.000185176
5 *1450:A3 *1478:A2 4.15263e-05
*RES
1 *1450:Y *1478:A2 20.3679 
*END

*D_NET *178 0.00506911
*CONN
*I *1459:A2 I *D sky130_fd_sc_hd__o21ai_1
*I *1508:A1 I *D sky130_fd_sc_hd__o211ai_2
*I *1457:A1 I *D sky130_fd_sc_hd__o21ai_1
*I *1451:Y O *D sky130_fd_sc_hd__a21oi_2
*CAP
1 *1459:A2 0
2 *1508:A1 0.000464063
3 *1457:A1 0.00014923
4 *1451:Y 0.000775878
5 *178:33 0.000651281
6 *178:12 0.00111233
7 *1457:A1 *1457:A2 1.86816e-05
8 *1457:A1 *1609:A3 0
9 *1457:A1 *1609:B1 5.33005e-05
10 *1457:A1 *470:36 4.38168e-05
11 *1457:A1 *470:46 7.20217e-06
12 *1508:A1 *1459:A1 1.7859e-05
13 *1508:A1 *1508:A2 0.000397231
14 *1508:A1 *183:12 2.14314e-05
15 *1508:A1 *470:26 7.5105e-05
16 *178:12 *1609:B1 4.66203e-05
17 *178:12 *185:18 0.00017308
18 *178:33 *1457:A2 7.15503e-05
19 *178:33 *1508:A2 0
20 *178:33 *1609:B1 3.17148e-05
21 *178:33 *317:18 4.038e-06
22 *178:33 *469:37 2.88945e-05
23 *178:33 *470:36 0.000144851
24 *1453:A2 *178:12 0.000421742
25 *1609:A2 *178:12 0.000256069
26 *1609:A2 *178:33 1.41029e-05
27 *148:16 *178:12 2.14757e-05
28 *148:20 *178:12 6.75704e-05
*RES
1 *1451:Y *178:12 25.1393 
2 *178:12 *1457:A1 16.3 
3 *178:12 *178:33 8.55357 
4 *178:33 *1508:A1 17.2107 
5 *178:33 *1459:A2 9.3 
*END

*D_NET *179 0.00451752
*CONN
*I *1459:A1 I *D sky130_fd_sc_hd__o21ai_1
*I *1453:A1 I *D sky130_fd_sc_hd__o21bai_1
*I *1458:B1 I *D sky130_fd_sc_hd__o211a_1
*I *1505:B1 I *D sky130_fd_sc_hd__a21o_1
*I *1461:C I *D sky130_fd_sc_hd__nand3_1
*I *1452:Y O *D sky130_fd_sc_hd__inv_2
*CAP
1 *1459:A1 0.000155174
2 *1453:A1 0.00015904
3 *1458:B1 1.75217e-05
4 *1505:B1 1.5459e-05
5 *1461:C 0.000338936
6 *1452:Y 2.37855e-05
7 *179:57 0.00043754
8 *179:40 0.000268421
9 *179:14 0.000531169
10 *179:6 0.000328133
11 *1453:A1 *1456:A1 5.45307e-05
12 *1453:A1 *1456:B1 4.4564e-05
13 *1459:A1 *1456:B1 3.62176e-05
14 *1459:A1 *180:8 4.16984e-05
15 *1459:A1 *183:12 0.000186543
16 *1461:C *1507:A 5.71472e-05
17 *1461:C *303:20 0.000265893
18 *1461:C *481:47 0.000270752
19 *1505:B1 *1507:A 2.23592e-05
20 *179:14 *1458:A1 0.000141131
21 *179:14 *1609:A3 3.24707e-05
22 *179:14 *181:10 3.10885e-05
23 *179:14 *181:53 0.000139864
24 *179:14 *492:44 0.000118995
25 *179:40 *1458:A1 0.000251121
26 *179:40 *1609:A3 2.1692e-05
27 *179:40 *185:18 1.59373e-05
28 *179:57 *1456:A1 0
29 *179:57 *1458:C1 9.17002e-05
30 *179:57 *185:18 3.23989e-05
31 *1451:A1 *1461:C 0.000135028
32 *1453:A2 *1461:C 4.16984e-05
33 *1453:A2 *1505:B1 2.84109e-05
34 *1458:A2 *1458:B1 1.02132e-05
35 *1458:A2 *179:40 0.000111738
36 *1505:A1 *179:14 4.46186e-06
37 *1508:A1 *1459:A1 1.7859e-05
38 *1609:A2 *1461:C 0
39 *148:16 *1461:C 2.28598e-05
40 *148:20 *1461:C 1.39726e-05
*RES
1 *1452:Y *179:6 9.72857 
2 *179:6 *179:14 13.5179 
3 *179:14 *1461:C 26.0321 
4 *179:14 *1505:B1 9.83571 
5 *179:6 *179:40 3.41071 
6 *179:40 *1458:B1 9.72857 
7 *179:40 *179:57 11.4107 
8 *179:57 *1453:A1 11.8 
9 *179:57 *1459:A1 12.8714 
*END

*D_NET *180 0.00301267
*CONN
*I *1508:A2 I *D sky130_fd_sc_hd__o211ai_2
*I *1457:A2 I *D sky130_fd_sc_hd__o21ai_1
*I *1453:Y O *D sky130_fd_sc_hd__o21bai_1
*CAP
1 *1508:A2 0.000184191
2 *1457:A2 0.000301755
3 *1453:Y 0.000146693
4 *180:8 0.000632639
5 *1457:A2 *184:8 0
6 *1457:A2 *317:18 0
7 *1457:A2 *469:37 0.00017309
8 *1457:A2 *470:36 7.4247e-05
9 *1457:A2 *470:46 6.05161e-06
10 *1508:A2 *183:12 9.22103e-06
11 *1508:A2 *470:26 0.000213381
12 *1508:A2 *470:36 5.52238e-05
13 *180:8 *1456:B1 0.000357274
14 *180:8 *1458:C1 5.52238e-05
15 *180:8 *181:23 0.00027452
16 *1457:A1 *1457:A2 1.86816e-05
17 *1459:A1 *180:8 4.16984e-05
18 *1508:A1 *1508:A2 0.000397231
19 *178:33 *1457:A2 7.15503e-05
20 *178:33 *1508:A2 0
*RES
1 *1453:Y *180:8 18.4429 
2 *180:8 *1457:A2 18.9607 
3 *180:8 *1508:A2 18.8893 
*END

*D_NET *181 0.00549501
*CONN
*I *1504:A1 I *D sky130_fd_sc_hd__a31o_1
*I *1503:A2 I *D sky130_fd_sc_hd__a21oi_2
*I *1505:A2 I *D sky130_fd_sc_hd__a21o_1
*I *1458:C1 I *D sky130_fd_sc_hd__o211a_1
*I *1456:A2 I *D sky130_fd_sc_hd__o21ai_1
*I *1463:B1 I *D sky130_fd_sc_hd__o21ai_1
*I *1454:Y O *D sky130_fd_sc_hd__nand2_2
*CAP
1 *1504:A1 0.00033904
2 *1503:A2 0
3 *1505:A2 1.72843e-05
4 *1458:C1 0.000198881
5 *1456:A2 0
6 *1463:B1 0.000221973
7 *1454:Y 0
8 *181:55 1.72843e-05
9 *181:53 0.000700948
10 *181:23 0.000562818
11 *181:10 0.000755094
12 *181:6 0.000531093
13 *1458:C1 *1456:A1 0
14 *1458:C1 *1458:A1 0
15 *1458:C1 *185:18 2.89016e-05
16 *1458:C1 *325:14 0.000197455
17 *1458:C1 *469:37 1.60899e-05
18 *1458:C1 *470:46 9.25014e-06
19 *1463:B1 *1455:A1 0.000129515
20 *1463:B1 *492:58 0.000315598
21 *1504:A1 *1504:A2 0.000161701
22 *1504:A1 *1507:A 7.54868e-05
23 *1504:A1 *263:92 1.89868e-05
24 *1504:A1 *480:94 0.000135028
25 *1505:A2 *1507:A 2.84026e-05
26 *181:10 *1452:A 2.06178e-05
27 *181:10 *481:59 0.000108353
28 *181:10 *492:44 5.25862e-06
29 *181:10 *492:48 9.17955e-06
30 *181:23 *1455:A1 1.59105e-05
31 *181:23 *1456:B1 3.18552e-05
32 *181:53 *1452:A 9.54798e-06
33 *181:53 *480:75 1.183e-05
34 *1453:A2 *1505:A2 2.84026e-05
35 *1453:A2 *181:53 1.20417e-05
36 *1455:A2 *181:23 0.000142129
37 *1458:A2 *181:10 0
38 *1458:A2 *181:53 0
39 *1505:A1 *1504:A1 1.71144e-05
40 *1505:A1 *181:53 2.38651e-06
41 *173:162 *1504:A1 2.30245e-05
42 *173:162 *181:53 4.13122e-06
43 *179:14 *181:10 3.10885e-05
44 *179:14 *181:53 0.000139864
45 *179:57 *1458:C1 9.17002e-05
46 *180:8 *1458:C1 5.52238e-05
47 *180:8 *181:23 0.00027452
*RES
1 *1454:Y *181:6 13.8 
2 *181:6 *181:10 7.35714 
3 *181:10 *1463:B1 13.9607 
4 *181:10 *181:23 5.48214 
5 *181:23 *1456:A2 9.3 
6 *181:23 *1458:C1 22.5321 
7 *181:6 *181:53 5 
8 *181:53 *181:55 4.5 
9 *181:55 *1505:A2 9.83571 
10 *181:55 *1503:A2 9.3 
11 *181:53 *1504:A1 19.175 
*END

*D_NET *182 0.00165842
*CONN
*I *1456:B1 I *D sky130_fd_sc_hd__o21ai_1
*I *1464:A2 I *D sky130_fd_sc_hd__a22oi_1
*I *1455:X O *D sky130_fd_sc_hd__o21a_1
*CAP
1 *1456:B1 0.000302283
2 *1464:A2 7.39122e-05
3 *1455:X 0
4 *182:4 0.000376196
5 *1456:B1 *1453:B1_N 0.000182598
6 *1456:B1 *1455:A1 3.98559e-05
7 *1456:B1 *1456:A1 9.99853e-05
8 *1464:A2 *1455:A1 6.05161e-06
9 *1464:A2 *1464:B1 4.90578e-06
10 *1464:A2 *492:58 5.20056e-05
11 *1453:A1 *1456:B1 4.4564e-05
12 *1455:A2 *1456:B1 5.07157e-05
13 *1459:A1 *1456:B1 3.62176e-05
14 *180:8 *1456:B1 0.000357274
15 *181:23 *1456:B1 3.18552e-05
*RES
1 *1455:X *182:4 9.3 
2 *182:4 *1464:A2 10.6527 
3 *182:4 *1456:B1 17.2643 
*END

*D_NET *183 0.00153721
*CONN
*I *1457:B1 I *D sky130_fd_sc_hd__o21ai_1
*I *1508:C1 I *D sky130_fd_sc_hd__o211ai_2
*I *1456:Y O *D sky130_fd_sc_hd__o21ai_1
*CAP
1 *1457:B1 0.000154663
2 *1508:C1 0
3 *1456:Y 0.000263152
4 *183:12 0.000417815
5 *1457:B1 *1466:B1 2.04866e-05
6 *1457:B1 *1508:B1 9.25014e-06
7 *1457:B1 *1606:B2 0.000151333
8 *1457:B1 *184:8 6.05161e-06
9 *1457:B1 *186:6 2.14658e-05
10 *1457:B1 *317:18 0.000102305
11 *1457:B1 *470:26 5.71472e-05
12 *183:12 *186:6 5.52302e-05
13 *183:12 *470:26 3.51767e-05
14 *183:12 *470:36 2.59355e-05
15 *1459:A1 *183:12 0.000186543
16 *1508:A1 *183:12 2.14314e-05
17 *1508:A2 *183:12 9.22103e-06
*RES
1 *1456:Y *183:12 13.6929 
2 *183:12 *1508:C1 9.3 
3 *183:12 *1457:B1 21.925 
*END

*D_NET *184 0.00106455
*CONN
*I *1509:A I *D sky130_fd_sc_hd__nand2_1
*I *1466:A2 I *D sky130_fd_sc_hd__o21ai_2
*I *1457:Y O *D sky130_fd_sc_hd__o21ai_1
*CAP
1 *1509:A 9.35943e-05
2 *1466:A2 0
3 *1457:Y 0.000109312
4 *184:8 0.000202906
5 *1509:A *1466:B1 4.65258e-05
6 *1509:A *1509:B 0.000201127
7 *1509:A *1604:A1 3.22834e-05
8 *1509:A *193:16 0.000154762
9 *1509:A *235:8 1.18064e-05
10 *1509:A *471:31 9.25014e-06
11 *1509:A *471:37 5.49489e-05
12 *184:8 *1466:B1 0.000137983
13 *184:8 *471:37 3.99614e-06
14 *1457:A2 *184:8 0
15 *1457:B1 *184:8 6.05161e-06
*RES
1 *1457:Y *184:8 11.4964 
2 *184:8 *1466:A2 9.3 
3 *184:8 *1509:A 22.1036 
*END

*D_NET *185 0.00369385
*CONN
*I *1606:B1 I *D sky130_fd_sc_hd__o22a_1
*I *1465:A1 I *D sky130_fd_sc_hd__o22ai_1
*I *1458:X O *D sky130_fd_sc_hd__o211a_1
*CAP
1 *1606:B1 0
2 *1465:A1 0.000352896
3 *1458:X 0.000318173
4 *185:18 0.000671068
5 *1465:A1 *1465:A2 0.000195547
6 *1465:A1 *1466:B1 3.25078e-05
7 *1465:A1 *1508:B1 7.80714e-06
8 *1465:A1 *1606:A1 0
9 *1465:A1 *1606:A2 0.000145826
10 *1465:A1 *1606:B2 6.76365e-05
11 *1465:A1 *230:6 9.31893e-05
12 *1465:A1 *235:8 0.000364967
13 *1465:A1 *317:18 0
14 *1465:A1 *471:31 0
15 *185:18 *1606:A2 8.21714e-05
16 *185:18 *1609:A3 0.000354056
17 *185:18 *230:6 0.000279554
18 *185:18 *470:46 0.000121573
19 *185:18 *480:75 0
20 *1458:A2 *185:18 0.00018172
21 *1458:C1 *185:18 2.89016e-05
22 *1609:A2 *185:18 0.000174844
23 *178:12 *185:18 0.00017308
24 *179:40 *185:18 1.59373e-05
25 *179:57 *185:18 3.23989e-05
*RES
1 *1458:X *185:18 28.4429 
2 *185:18 *1465:A1 28.0321 
3 *185:18 *1606:B1 9.3 
*END

*D_NET *186 0.00174353
*CONN
*I *1465:A2 I *D sky130_fd_sc_hd__o22ai_1
*I *1606:B2 I *D sky130_fd_sc_hd__o22a_1
*I *1459:Y O *D sky130_fd_sc_hd__o21ai_1
*CAP
1 *1465:A2 0.00015203
2 *1606:B2 0.000159984
3 *1459:Y 0.000107848
4 *186:6 0.000419863
5 *1465:A2 *1466:B1 0.000193118
6 *1465:A2 *470:26 6.17358e-05
7 *1606:B2 *1466:B1 7.83659e-05
8 *1606:B2 *235:8 0
9 *1606:B2 *317:18 6.53968e-05
10 *186:6 *470:26 1.39726e-05
11 *1457:B1 *1606:B2 0.000151333
12 *1457:B1 *186:6 2.14658e-05
13 *1465:A1 *1465:A2 0.000195547
14 *1465:A1 *1606:B2 6.76365e-05
15 *183:12 *186:6 5.52302e-05
*RES
1 *1459:Y *186:6 10.6571 
2 *186:6 *1606:B2 22.675 
3 *186:6 *1465:A2 21.8 
*END

*D_NET *187 0.000812495
*CONN
*I *1508:B1 I *D sky130_fd_sc_hd__o211ai_2
*I *1465:B1 I *D sky130_fd_sc_hd__o22ai_1
*I *1460:Y O *D sky130_fd_sc_hd__inv_2
*CAP
1 *1508:B1 7.86301e-05
2 *1465:B1 2.5843e-05
3 *1460:Y 0.000126392
4 *187:6 0.000230865
5 *1465:B1 *1465:B2 5.71472e-05
6 *1508:B1 *1466:B1 0.000147474
7 *1508:B1 *317:18 5.44074e-05
8 *187:6 *1460:A 3.08664e-05
9 *187:6 *1465:B2 4.38128e-05
10 *1457:B1 *1508:B1 9.25014e-06
11 *1465:A1 *1508:B1 7.80714e-06
*RES
1 *1460:Y *187:6 11.4786 
2 *187:6 *1465:B1 9.83571 
3 *187:6 *1508:B1 20.55 
*END

*D_NET *188 0.000237304
*CONN
*I *1464:A1 I *D sky130_fd_sc_hd__a22oi_1
*I *1461:Y O *D sky130_fd_sc_hd__nand3_1
*CAP
1 *1464:A1 5.37622e-05
2 *1461:Y 5.37622e-05
3 *1464:A1 *259:129 9.85571e-05
4 *1464:A1 *492:48 3.12221e-05
*RES
1 *1461:Y *1464:A1 28.9393 
*END

*D_NET *189 0.000773481
*CONN
*I *1464:B1 I *D sky130_fd_sc_hd__a22oi_1
*I *1462:Y O *D sky130_fd_sc_hd__a21oi_1
*CAP
1 *1464:B1 0.000280098
2 *1462:Y 0.000280098
3 *1464:B1 *1462:B1 1.51018e-05
4 *1464:B1 *1464:B2 5.71472e-05
5 *1464:B1 *266:28 2.79092e-05
6 *1464:B1 *481:59 6.2589e-06
7 *1464:B1 *492:58 6.26591e-05
8 *1464:A2 *1464:B1 4.90578e-06
9 *170:31 *1464:B1 7.43578e-06
10 *170:50 *1464:B1 3.18676e-05
*RES
1 *1462:Y *1464:B1 31.8054 
*END

*D_NET *190 0.000126884
*CONN
*I *1464:B2 I *D sky130_fd_sc_hd__a22oi_1
*I *1463:Y O *D sky130_fd_sc_hd__o21ai_1
*CAP
1 *1464:B2 6.29488e-06
2 *1463:Y 6.29488e-06
3 *1464:B2 *492:58 5.71472e-05
4 *1464:B1 *1464:B2 5.71472e-05
*RES
1 *1463:Y *1464:B2 19.1357 
*END

*D_NET *191 0.00219056
*CONN
*I *1465:B2 I *D sky130_fd_sc_hd__o22ai_1
*I *1464:Y O *D sky130_fd_sc_hd__a22oi_1
*CAP
1 *1465:B2 0.000993166
2 *1464:Y 0.000993166
3 *1465:B2 *266:28 0
4 *1465:B2 *303:20 0.000103267
5 *1465:B1 *1465:B2 5.71472e-05
6 *187:6 *1465:B2 4.38128e-05
*RES
1 *1464:Y *1465:B2 43.5821 
*END

*D_NET *192 0.00142398
*CONN
*I *1466:B1 I *D sky130_fd_sc_hd__o21ai_2
*I *1465:Y O *D sky130_fd_sc_hd__o22ai_1
*CAP
1 *1466:B1 0.000376773
2 *1465:Y 0.000376773
3 *1466:B1 *471:37 1.39726e-05
4 *1457:B1 *1466:B1 2.04866e-05
5 *1465:A1 *1466:B1 3.25078e-05
6 *1465:A2 *1466:B1 0.000193118
7 *1508:B1 *1466:B1 0.000147474
8 *1509:A *1466:B1 4.65258e-05
9 *1606:B2 *1466:B1 7.83659e-05
10 *184:8 *1466:B1 0.000137983
*RES
1 *1465:Y *1466:B1 34.4929 
*END

*D_NET *193 0.00811857
*CONN
*I *1478:B1 I *D sky130_fd_sc_hd__o22a_1
*I *1590:A2 I *D sky130_fd_sc_hd__a21o_1
*I *1598:A3 I *D sky130_fd_sc_hd__a31o_1
*I *1597:A2 I *D sky130_fd_sc_hd__a21oi_1
*I *1466:Y O *D sky130_fd_sc_hd__o21ai_2
*CAP
1 *1478:B1 0
2 *1590:A2 0
3 *1598:A3 2.3932e-05
4 *1597:A2 7.0548e-05
5 *1466:Y 0.000600545
6 *193:71 0.00126239
7 *193:44 0.00142859
8 *193:29 0.000398941
9 *193:16 0.000879907
10 *1597:A2 *259:98 9.61354e-05
11 *1597:A2 *307:21 5.49544e-05
12 *1598:A3 *1598:A1 2.59355e-05
13 *1598:A3 *1598:A2 2.59355e-05
14 *193:16 *1601:A1 4.07549e-05
15 *193:16 *1604:A1 0.000119097
16 *193:16 *1604:B1 8.00843e-06
17 *193:16 *230:23 0.000149896
18 *193:16 *235:8 4.93504e-05
19 *193:16 *235:25 0.000133359
20 *193:16 *259:98 1.97381e-05
21 *193:16 *259:102 0.000258672
22 *193:16 *263:100 0
23 *193:16 *385:102 0
24 *193:29 *1598:B1 0
25 *193:29 *259:98 2.14658e-05
26 *193:29 *307:21 0
27 *193:29 *385:102 0.000221163
28 *193:44 *1599:B1 4.94362e-05
29 *193:44 *255:52 0.000225616
30 *193:44 *385:102 0.000171375
31 *193:71 *1468:A2 0
32 *193:71 *1468:B1 0
33 *193:71 *1477:A1 7.83587e-05
34 *193:71 *1477:C1 6.28493e-05
35 *193:71 *1477:D1 2.07382e-05
36 *193:71 *1511:A 0.000117082
37 *193:71 *1594:A1 2.71332e-05
38 *193:71 *1597:B1 9.90431e-05
39 *193:71 *1647:C1 0
40 *193:71 *195:12 7.6644e-05
41 *193:71 *195:16 5.33005e-05
42 *193:71 *201:6 0.00017088
43 *193:71 *255:52 0.000175015
44 *193:71 *266:119 1.77672e-05
45 *193:71 *308:18 9.60875e-05
46 *193:71 *309:10 3.18676e-05
47 *193:71 *479:20 0.000242243
48 *193:71 *482:104 3.14763e-05
49 *1441:B *193:71 5.7128e-05
50 *1450:A3 *193:71 9.40167e-05
51 *1450:B1 *193:71 0
52 *1467:A2 *193:71 5.7836e-06
53 *1468:A3 *193:71 0
54 *1509:A *193:16 0.000154762
55 *168:10 *193:71 0.000170654
56 *173:158 *193:71 0
*RES
1 *1466:Y *193:16 33.2821 
2 *193:16 *1597:A2 11.0679 
3 *193:16 *193:29 8.71429 
4 *193:29 *1598:A3 14.3357 
5 *193:29 *193:44 8.92857 
6 *193:44 *1590:A2 9.3 
7 *193:44 *193:71 40.9107 
8 *193:71 *1478:B1 9.3 
*END

*D_NET *194 0.00187041
*CONN
*I *1589:A1 I *D sky130_fd_sc_hd__o21ai_1
*I *1479:A1 I *D sky130_fd_sc_hd__o2111a_1
*I *1476:A1 I *D sky130_fd_sc_hd__o21ai_2
*I *1477:A1 I *D sky130_fd_sc_hd__o2111ai_1
*I *1467:Y O *D sky130_fd_sc_hd__a21oi_2
*CAP
1 *1589:A1 0
2 *1479:A1 0.000111211
3 *1476:A1 0
4 *1477:A1 9.12795e-05
5 *1467:Y 0
6 *194:30 0.000156783
7 *194:23 0.000223603
8 *194:4 0.00026931
9 *1477:A1 *1476:A2 2.28499e-05
10 *1477:A1 *1511:A 7.83659e-05
11 *1477:A1 *195:12 2.39876e-05
12 *1477:A1 *263:106 1.69115e-05
13 *1479:A1 *1479:A2 5.7661e-06
14 *1479:A1 *1479:C1 0
15 *1479:A1 *1589:A2 0.000174846
16 *1479:A1 *259:98 0.000173097
17 *1479:A1 *472:54 1.31516e-05
18 *194:23 *1476:A2 0.000178847
19 *194:23 *203:10 3.98559e-05
20 *194:30 *1476:B1 5.33005e-05
21 *194:30 *1589:B1 9.77414e-05
22 *194:30 *203:10 5.71472e-05
23 *1467:A1 *194:23 3.99614e-06
24 *193:71 *1477:A1 7.83587e-05
*RES
1 *1467:Y *194:4 9.3 
2 *194:4 *1477:A1 20.4786 
3 *194:4 *194:23 3.44643 
4 *194:23 *1476:A1 9.3 
5 *194:23 *194:30 1.35714 
6 *194:30 *1479:A1 21.5143 
7 *194:30 *1589:A1 9.3 
*END

*D_NET *195 0.00264476
*CONN
*I *1477:A2 I *D sky130_fd_sc_hd__o2111ai_1
*I *1589:A2 I *D sky130_fd_sc_hd__o21ai_1
*I *1479:A2 I *D sky130_fd_sc_hd__o2111a_1
*I *1468:X O *D sky130_fd_sc_hd__a31o_1
*CAP
1 *1477:A2 0
2 *1589:A2 0.000145539
3 *1479:A2 1.85698e-05
4 *1468:X 0.000347515
5 *195:16 0.000435047
6 *195:12 0.000618454
7 *1479:A2 *1479:C1 3.99614e-06
8 *1589:A2 *1599:B1 1.3142e-05
9 *1589:A2 *472:54 0.000126446
10 *195:12 *1468:B1 4.03318e-05
11 *195:16 *1477:C1 1.05475e-07
12 *195:16 *1477:D1 9.0902e-05
13 *195:16 *1479:B1 5.71472e-05
14 *195:16 *1479:C1 0
15 *195:16 *201:10 8.25843e-06
16 *195:16 *201:23 7.49387e-06
17 *1467:A1 *195:12 0.000397271
18 *1477:A1 *195:12 2.39876e-05
19 *1479:A1 *1479:A2 5.7661e-06
20 *1479:A1 *1589:A2 0.000174846
21 *193:71 *195:12 7.6644e-05
22 *193:71 *195:16 5.33005e-05
*RES
1 *1468:X *195:12 23.7643 
2 *195:12 *195:16 4.66071 
3 *195:16 *1479:A2 9.72857 
4 *195:16 *1589:A2 21.6036 
5 *195:12 *1477:A2 9.3 
*END

*D_NET *196 0.00109752
*CONN
*I *1470:A1 I *D sky130_fd_sc_hd__o211ai_4
*I *1472:A1 I *D sky130_fd_sc_hd__o22ai_1
*I *1469:Y O *D sky130_fd_sc_hd__inv_2
*CAP
1 *1470:A1 0.000125626
2 *1472:A1 8.77246e-05
3 *1469:Y 3.96504e-05
4 *196:8 0.000253001
5 *1470:A1 *1474:A1 0.000116708
6 *1470:A1 *303:20 0.000309336
7 *1472:A1 *1474:A1 1.02504e-05
8 *1472:A1 *303:20 4.33002e-05
9 *196:8 *1469:A 3.18676e-05
10 *1473:A2 *1470:A1 6.03618e-05
11 *1473:A2 *1472:A1 6.2169e-06
12 *174:10 *1472:A1 7.69776e-06
13 *174:53 *1472:A1 5.77757e-06
*RES
1 *1469:Y *196:8 14.3357 
2 *196:8 *1472:A1 15.1929 
3 *196:8 *1470:A1 17.8714 
*END

*D_NET *197 0.00369962
*CONN
*I *1591:A2 I *D sky130_fd_sc_hd__a41oi_1
*I *1592:A1 I *D sky130_fd_sc_hd__a22o_1
*I *1479:B1 I *D sky130_fd_sc_hd__o2111a_1
*I *1477:B1 I *D sky130_fd_sc_hd__o2111ai_1
*I *1470:Y O *D sky130_fd_sc_hd__o211ai_4
*CAP
1 *1591:A2 0
2 *1592:A1 0.000139302
3 *1479:B1 9.47841e-05
4 *1477:B1 0.000120458
5 *1470:Y 0.000224181
6 *197:23 0.000234086
7 *197:21 0.000201705
8 *197:6 0.000546344
9 *1477:B1 *1468:B1 8.5896e-05
10 *1477:B1 *263:106 0
11 *1479:B1 *1592:A2 3.34295e-05
12 *1479:B1 *201:23 0.000131038
13 *1479:B1 *259:98 0.000118349
14 *1479:B1 *309:10 4.13477e-05
15 *1592:A1 *1592:A2 0.000153788
16 *1592:A1 *259:98 7.46259e-05
17 *197:6 *400:34 0.000612298
18 *197:6 *400:36 0.000136682
19 *197:6 *473:32 0.000266851
20 *197:21 *1591:A1 0.000135028
21 *197:21 *1591:B1 5.33005e-05
22 *197:21 *400:34 0.00019412
23 *1442:A1 *197:6 4.48647e-05
24 *195:16 *1479:B1 5.71472e-05
*RES
1 *1470:Y *197:6 16.4071 
2 *197:6 *1477:B1 20.55 
3 *197:6 *197:21 4.66071 
4 *197:21 *197:23 4.5 
5 *197:23 *1479:B1 17.1929 
6 *197:23 *1592:A1 16.425 
7 *197:21 *1591:A2 9.3 
*END

*D_NET *198 0.00113203
*CONN
*I *1472:B2 I *D sky130_fd_sc_hd__o22ai_1
*I *1471:X O *D sky130_fd_sc_hd__or2b_1
*CAP
1 *1472:B2 0.000174971
2 *1471:X 0.000174971
3 *1472:B2 *1469:A 0.000161285
4 *1472:B2 *1474:A1 7.96621e-05
5 *1472:B2 *266:119 8.00806e-05
6 *1472:B2 *361:42 0.000399841
7 *172:48 *1472:B2 1.96329e-05
8 *173:91 *1472:B2 4.15914e-05
*RES
1 *1471:X *1472:B2 33.4929 
*END

*D_NET *199 0.000717779
*CONN
*I *1474:A1 I *D sky130_fd_sc_hd__o21bai_2
*I *1472:Y O *D sky130_fd_sc_hd__o22ai_1
*CAP
1 *1474:A1 0.000173245
2 *1472:Y 0.000173245
3 *1474:A1 *1469:A 0
4 *1474:A1 *361:42 4.18069e-05
5 *1470:A1 *1474:A1 0.000116708
6 *1472:A1 *1474:A1 1.02504e-05
7 *1472:B1 *1474:A1 5.80553e-05
8 *1472:B2 *1474:A1 7.96621e-05
9 *1473:A2 *1474:A1 6.48068e-05
*RES
1 *1472:Y *1474:A1 32.2339 
*END

*D_NET *200 0.0114236
*CONN
*I *1521:C1 I *D sky130_fd_sc_hd__a311o_1
*I *1520:A2 I *D sky130_fd_sc_hd__o21ai_1
*I *1562:B I *D sky130_fd_sc_hd__or3b_1
*I *1577:B I *D sky130_fd_sc_hd__or3b_1
*I *1546:B1 I *D sky130_fd_sc_hd__a31o_1
*I *1474:A2 I *D sky130_fd_sc_hd__o21bai_2
*I *1473:X O *D sky130_fd_sc_hd__o21a_2
*CAP
1 *1521:C1 0.00013481
2 *1520:A2 0.000476142
3 *1562:B 0.000403016
4 *1577:B 3.04774e-05
5 *1546:B1 0.00021984
6 *1474:A2 0.000413872
7 *1473:X 2.66016e-05
8 *200:54 0.000855844
9 *200:50 0.00140529
10 *200:44 0.000695444
11 *200:25 0.000466474
12 *200:8 0.000633272
13 *1474:A2 *1474:B1_N 1.00733e-05
14 *1474:A2 *1540:A 0
15 *1474:A2 *460:10 2.53834e-05
16 *1474:A2 *473:8 2.27416e-05
17 *1474:A2 *473:25 6.09688e-05
18 *1520:A2 *1517:B1 6.61828e-05
19 *1520:A2 *1544:B1_N 1.74795e-05
20 *1520:A2 *1742:A 0.000233818
21 *1520:A2 *389:157 0
22 *1521:C1 *1521:A1 7.68852e-05
23 *1521:C1 *1521:B1 9.35228e-06
24 *1521:C1 *1525:A2 1.98839e-05
25 *1521:C1 *246:33 2.14658e-05
26 *1521:C1 *460:10 6.92626e-05
27 *1546:B1 *1546:A1 1.86552e-05
28 *1546:B1 *385:92 0.000221071
29 *1546:B1 *483:53 0.00012401
30 *1562:B *1516:D 0.000216815
31 *1562:B *1574:A2 1.71615e-05
32 *1562:B *1616:B1 2.06178e-05
33 *1562:B *242:10 0.000142969
34 *200:8 *205:18 9.67754e-05
35 *200:8 *303:115 4.97967e-05
36 *200:25 *460:10 0.000214565
37 *200:44 *460:10 6.19181e-05
38 *200:50 *1517:A1 4.58194e-05
39 *200:50 *1517:B1 2.59355e-05
40 *200:50 *244:10 9.71197e-05
41 *200:54 *1517:B1 3.20501e-05
42 *200:54 *1824:A 8.55871e-05
43 *200:54 *279:55 9.58126e-05
44 *200:54 *389:10 0.000388893
45 *1432:B *1546:B1 9.07742e-06
46 *1473:A2 *1474:A2 0
47 *1520:A1 *1520:A2 1.92905e-05
48 *1521:A2 *1521:C1 0.000174083
49 *1521:A2 *200:44 5.66157e-05
50 *1525:B2 *1546:B1 0.000125724
51 *1557:B1 *1520:A2 0.000150625
52 *1562:A *1562:B 0.00066601
53 *1574:A1 *1562:B 3.06878e-06
54 *1577:A *1562:B 0.000102403
55 *1577:A *1577:B 0.00010326
56 *150:102 *1474:A2 0.000384953
57 *150:102 *200:25 0.000180311
58 *150:113 *200:25 0.0002641
59 *150:113 *200:44 6.81083e-05
60 *150:117 *200:50 2.59355e-05
61 *151:89 *200:50 7.02611e-05
62 *153:41 *1562:B 0.000165999
63 *153:41 *1577:B 0.000104974
64 *157:12 *1474:A2 0
65 *159:41 *200:50 5.89174e-05
66 *159:41 *200:54 0.000197704
67 *165:29 *1520:A2 0.000141985
*RES
1 *1473:X *200:8 14.7464 
2 *200:8 *1474:A2 21.8179 
3 *200:8 *200:25 5.89286 
4 *200:25 *1546:B1 26.8089 
5 *200:25 *200:44 1.64286 
6 *200:44 *200:50 13.6786 
7 *200:50 *200:54 13.6607 
8 *200:54 *1577:B 15.1393 
9 *200:54 *1562:B 24.2821 
10 *200:50 *1520:A2 26.8 
11 *200:44 *1521:C1 17.55 
*END

*D_NET *201 0.00444855
*CONN
*I *1477:C1 I *D sky130_fd_sc_hd__o2111ai_1
*I *1592:A2 I *D sky130_fd_sc_hd__a22o_1
*I *1591:A3 I *D sky130_fd_sc_hd__a41oi_1
*I *1479:C1 I *D sky130_fd_sc_hd__o2111a_1
*I *1474:Y O *D sky130_fd_sc_hd__o21bai_2
*CAP
1 *1477:C1 5.00902e-05
2 *1592:A2 0.000120661
3 *1591:A3 0
4 *1479:C1 5.23239e-05
5 *1474:Y 0.000445031
6 *201:23 0.000205993
7 *201:10 0.000535576
8 *201:6 0.000893041
9 *1477:C1 *1477:D1 4.00337e-05
10 *1592:A2 *1592:B1 0.000163874
11 *1592:A2 *1592:B2 2.49168e-05
12 *1592:A2 *259:98 6.93626e-06
13 *1592:A2 *472:24 0.000140243
14 *201:6 *1441:C 0.000131385
15 *201:6 *1471:B_N 9.71197e-05
16 *201:6 *473:25 0.000309273
17 *201:6 *482:104 8.56752e-05
18 *201:10 *1477:D1 0.000410149
19 *201:23 *1592:B1 1.02504e-05
20 *201:23 *309:10 0.000125731
21 *1479:A1 *1479:C1 0
22 *1479:A2 *1479:C1 3.99614e-06
23 *1479:B1 *1592:A2 3.34295e-05
24 *1479:B1 *201:23 0.000131038
25 *1592:A1 *1592:A2 0.000153788
26 *168:10 *201:6 2.84109e-05
27 *193:71 *1477:C1 6.28493e-05
28 *193:71 *201:6 0.00017088
29 *195:16 *1477:C1 1.05475e-07
30 *195:16 *1479:C1 0
31 *195:16 *201:10 8.25843e-06
32 *195:16 *201:23 7.49387e-06
*RES
1 *1474:Y *201:6 19.6929 
2 *201:6 *201:10 5.78571 
3 *201:10 *1479:C1 10.3357 
4 *201:10 *201:23 6.67857 
5 *201:23 *1591:A3 13.8 
6 *201:23 *1592:A2 17.7107 
7 *201:6 *1477:C1 11.2107 
*END

*D_NET *202 0.0015278
*CONN
*I *1476:A2 I *D sky130_fd_sc_hd__o21ai_2
*I *1475:X O *D sky130_fd_sc_hd__and3_1
*CAP
1 *1476:A2 0.000235383
2 *1475:X 0.000235383
3 *1476:A2 *1467:B1 7.48927e-06
4 *1476:A2 *1468:B1 6.12455e-05
5 *1476:A2 *203:10 5.33005e-05
6 *1476:A2 *482:38 4.43256e-05
7 *1476:A2 *482:42 0.00035829
8 *1476:A2 *482:44 0.000181374
9 *1467:A1 *1476:A2 0.000149316
10 *1477:A1 *1476:A2 2.28499e-05
11 *194:23 *1476:A2 0.000178847
*RES
1 *1475:X *1476:A2 26.5643 
*END

*D_NET *203 0.00375086
*CONN
*I *1589:B1 I *D sky130_fd_sc_hd__o21ai_1
*I *1592:B2 I *D sky130_fd_sc_hd__a22o_1
*I *1591:A1 I *D sky130_fd_sc_hd__a41oi_1
*I *1477:D1 I *D sky130_fd_sc_hd__o2111ai_1
*I *1479:D1 I *D sky130_fd_sc_hd__o2111a_1
*I *1476:Y O *D sky130_fd_sc_hd__o21ai_2
*CAP
1 *1589:B1 5.17158e-05
2 *1592:B2 7.36964e-05
3 *1591:A1 0.000168802
4 *1477:D1 0.000120226
5 *1479:D1 0
6 *1476:Y 0
7 *203:32 0.000315791
8 *203:19 0.000205885
9 *203:10 0.000112427
10 *203:4 0.000151776
11 *1589:B1 *1476:B1 4.78308e-05
12 *1589:B1 *482:38 0.000213353
13 *1591:A1 *1593:A 1.24368e-05
14 *1591:A1 *400:34 2.95726e-05
15 *1592:B2 *1538:B1 7.70204e-05
16 *1592:B2 *1592:B1 0.000109318
17 *1592:B2 *472:24 5.50052e-05
18 *203:10 *263:106 0.000196077
19 *203:10 *309:10 0.000194498
20 *203:10 *482:38 0.000185643
21 *203:19 *263:106 4.80729e-05
22 *203:19 *309:10 5.83233e-05
23 *203:32 *1538:B1 2.49484e-05
24 *203:32 *1592:B1 4.49293e-05
25 *203:32 *263:106 0.000137224
26 *203:32 *309:10 0.000146474
27 *1476:A2 *203:10 5.33005e-05
28 *1477:C1 *1477:D1 4.00337e-05
29 *1592:A2 *1592:B2 2.49168e-05
30 *193:71 *1477:D1 2.07382e-05
31 *194:23 *203:10 3.98559e-05
32 *194:30 *1589:B1 9.77414e-05
33 *194:30 *203:10 5.71472e-05
34 *195:16 *1477:D1 9.0902e-05
35 *197:21 *1591:A1 0.000135028
36 *201:10 *1477:D1 0.000410149
*RES
1 *1476:Y *203:4 9.3 
2 *203:4 *203:10 8.82143 
3 *203:10 *1479:D1 13.8 
4 *203:10 *203:19 0.732143 
5 *203:19 *1477:D1 18.05 
6 *203:19 *203:32 2.55357 
7 *203:32 *1591:A1 16.7107 
8 *203:32 *1592:B2 16.2821 
9 *203:4 *1589:B1 11.4786 
*END

*D_NET *204 0.00209015
*CONN
*I *1478:B2 I *D sky130_fd_sc_hd__o22a_1
*I *1477:Y O *D sky130_fd_sc_hd__o2111ai_1
*CAP
1 *1478:B2 0.000672795
2 *1477:Y 0.000672795
3 *1478:B2 *1450:B2 0.000136005
4 *1478:B2 *1468:B1 0.000363945
5 *1442:A2 *1478:B2 1.6618e-05
6 *1450:A3 *1478:B2 1.85621e-05
7 *1450:B1 *1478:B2 0
8 *1478:A2 *1478:B2 0.000185176
9 *161:135 *1478:B2 2.42564e-05
*RES
1 *1477:Y *1478:B2 38.975 
*END

*D_NET *205 0.00509405
*CONN
*I *1555:A I *D sky130_fd_sc_hd__nand2_2
*I *1517:A1 I *D sky130_fd_sc_hd__a21oi_1
*I *1564:A1 I *D sky130_fd_sc_hd__a21boi_1
*I *1478:X O *D sky130_fd_sc_hd__o22a_1
*CAP
1 *1555:A 0
2 *1517:A1 0.000187978
3 *1564:A1 0.000294197
4 *1478:X 0.000715644
5 *205:24 0.000561652
6 *205:18 0.000795122
7 *1517:A1 *1517:A2 0.000221975
8 *1517:A1 *238:19 4.63001e-05
9 *1517:A1 *278:10 0
10 *1564:A1 *1564:A2 0.00016602
11 *1564:A1 *385:92 1.8556e-05
12 *205:18 *1473:A1 0.000178503
13 *205:18 *1661:A1 0.000396617
14 *205:18 *279:6 4.34677e-05
15 *205:18 *303:115 0.000166322
16 *205:18 *383:177 6.44994e-05
17 *205:24 *238:10 1.00887e-05
18 *205:24 *238:19 0.00011968
19 *205:24 *279:6 0.000100165
20 *151:74 *205:18 0
21 *159:41 *1517:A1 9.90431e-05
22 *160:35 *205:18 0.000181796
23 *161:52 *205:18 0.000124999
24 *161:52 *205:24 2.38501e-05
25 *162:36 *1517:A1 4.43393e-05
26 *162:36 *205:24 0.00015092
27 *163:111 *205:18 0.000239718
28 *200:8 *205:18 9.67754e-05
29 *200:50 *1517:A1 4.58194e-05
*RES
1 *1478:X *205:18 34.6929 
2 *205:18 *205:24 7.08929 
3 *205:24 *1564:A1 17.6214 
4 *205:24 *1517:A1 19.0679 
5 *205:18 *1555:A 9.3 
*END

*D_NET *206 0.00127234
*CONN
*I *1511:A I *D sky130_fd_sc_hd__nand4_2
*I *1479:X O *D sky130_fd_sc_hd__o2111a_1
*CAP
1 *1511:A 0.000288457
2 *1479:X 0.000288457
3 *1511:A *1511:B 0.000144773
4 *1511:A *1511:C 4.46186e-06
5 *1511:A *1597:B1 0
6 *1511:A *1608:A 5.0725e-05
7 *1511:A *263:106 0.000300014
8 *1477:A1 *1511:A 7.83659e-05
9 *193:71 *1511:A 0.000117082
*RES
1 *1479:X *1511:A 35.4571 
*END

*D_NET *207 0.00436234
*CONN
*I *1482:A I *D sky130_fd_sc_hd__nand3_1
*I *1612:A I *D sky130_fd_sc_hd__and3_1
*I *1480:Y O *D sky130_fd_sc_hd__o21ai_1
*CAP
1 *1482:A 0.000722151
2 *1612:A 0.000157695
3 *1480:Y 0.000228035
4 *207:10 0.00110788
5 *1482:A *1501:A2 8.8175e-05
6 *1482:A *1613:A 2.10974e-05
7 *1482:A *1613:B 8.43535e-06
8 *1482:A *1614:A2_N 0.000136733
9 *1482:A *1615:B1 3.06878e-06
10 *1482:A *228:6 5.04841e-06
11 *1482:A *228:39 2.57826e-06
12 *1482:A *263:43 6.49199e-05
13 *1482:A *314:29 0.000191337
14 *1482:A *468:36 0.000123891
15 *1612:A *1486:A_N 7.72319e-05
16 *1612:A *1487:A 1.19813e-05
17 *1612:A *213:8 1.21258e-05
18 *1612:A *468:53 6.04072e-05
19 *207:10 *263:43 8.26834e-05
20 *207:10 *314:29 0.000172049
21 *207:10 *339:61 9.25014e-06
22 *1480:A2 *207:10 5.71472e-05
23 *148:43 *207:10 4.72917e-05
24 *148:45 *207:10 0.000355003
25 *152:29 *207:10 0.000616125
*RES
1 *1480:Y *207:10 23.1571 
2 *207:10 *1612:A 15.9964 
3 *207:10 *1482:A 25.1571 
*END

*D_NET *208 0.00343022
*CONN
*I *1612:B I *D sky130_fd_sc_hd__and3_1
*I *1482:B I *D sky130_fd_sc_hd__nand3_1
*I *1481:X O *D sky130_fd_sc_hd__a211o_1
*CAP
1 *1612:B 0.000229148
2 *1482:B 0.000420969
3 *1481:X 0.000365091
4 *208:14 0.00101521
5 *1482:B *1501:B1_N 2.13687e-05
6 *1482:B *349:16 0
7 *1482:B *383:48 0
8 *1482:B *481:37 0.000650819
9 *1612:B *1614:A1_N 0.000119533
10 *1612:B *222:21 6.62859e-05
11 *208:14 *228:39 0.000146348
12 *208:14 *314:29 2.11419e-05
13 *208:14 *481:37 0.000311103
14 *153:27 *1612:B 6.32026e-05
*RES
1 *1481:X *208:14 21.8236 
2 *208:14 *1482:B 18.8823 
3 *208:14 *1612:B 19.5091 
*END

*D_NET *209 0.00227465
*CONN
*I *1500:B I *D sky130_fd_sc_hd__nand2_1
*I *1487:A I *D sky130_fd_sc_hd__nand2_2
*I *1619:A1 I *D sky130_fd_sc_hd__a221o_1
*I *1482:Y O *D sky130_fd_sc_hd__nand3_1
*CAP
1 *1500:B 0
2 *1487:A 0.00017885
3 *1619:A1 0.000179286
4 *1482:Y 0.000156617
5 *209:18 0.000545758
6 *209:14 0.000344239
7 *1487:A *1487:B 2.59355e-05
8 *1487:A *1500:A 6.05161e-06
9 *1487:A *213:8 3.04164e-05
10 *1619:A1 *1619:A2 0.000327463
11 *1619:A1 *1620:B2 0.000125724
12 *1619:A1 *1621:B1 3.3728e-05
13 *1619:A1 *254:48 0
14 *1619:A1 *254:63 2.74981e-06
15 *1619:A1 *468:36 9.94068e-05
16 *209:14 *1501:B1_N 0.000129819
17 *209:18 *1500:A 4.84073e-05
18 *209:18 *1501:B1_N 3.47702e-06
19 *1612:A *1487:A 1.19813e-05
20 *173:30 *209:14 2.4741e-05
*RES
1 *1482:Y *209:14 21.7286 
2 *209:14 *209:18 2.5 
3 *209:18 *1619:A1 23.2107 
4 *209:18 *1487:A 11.8 
5 *209:14 *1500:B 9.3 
*END

*D_NET *210 0.00183881
*CONN
*I *1485:B1 I *D sky130_fd_sc_hd__a211o_1
*I *1496:A2 I *D sky130_fd_sc_hd__a211o_1
*I *1484:B1 I *D sky130_fd_sc_hd__o21ai_1
*I *1483:Y O *D sky130_fd_sc_hd__inv_2
*CAP
1 *1485:B1 0
2 *1496:A2 0.000115159
3 *1484:B1 0.000208744
4 *1483:Y 0.000223275
5 *210:10 0.000323902
6 *210:8 0.000223275
7 *210:8 *1428:B 4.08637e-05
8 *210:8 *478:57 5.33005e-05
9 *210:8 *481:37 8.10737e-06
10 *1485:A1 *1484:B1 4.27842e-06
11 *1485:A1 *1496:A2 8.6137e-05
12 *1485:A2 *1484:B1 6.14702e-06
13 *1485:A2 *210:8 9.23561e-06
14 *150:56 *210:8 8.7842e-05
15 *151:10 *210:8 1.38323e-05
16 *151:26 *210:8 2.85234e-05
17 *152:12 *1484:B1 1.07401e-05
18 *166:36 *1484:B1 0.000178678
19 *166:36 *1496:A2 1.00887e-05
20 *166:47 *1496:A2 0.00020668
*RES
1 *1483:Y *210:8 13.1393 
2 *210:8 *210:10 4.5 
3 *210:10 *1484:B1 17.3 
4 *210:10 *1496:A2 16.6571 
5 *210:8 *1485:B1 9.3 
*END

*D_NET *211 0.00158107
*CONN
*I *1486:B I *D sky130_fd_sc_hd__nand3b_1
*I *1484:Y O *D sky130_fd_sc_hd__o21ai_1
*CAP
1 *1486:B 0.000404579
2 *1484:Y 0.000404579
3 *1486:B *1486:C 0.000269372
4 *1486:B *213:8 9.99853e-05
5 *1486:B *481:37 4.63685e-05
6 *1486:B *486:70 0.000146994
7 *1485:A2 *1486:B 2.83763e-05
8 *148:41 *1486:B 7.4854e-05
9 *148:43 *1486:B 9.87041e-05
10 *148:45 *1486:B 7.25873e-06
*RES
1 *1484:Y *1486:B 35.5643 
*END

*D_NET *212 0.000685893
*CONN
*I *1486:C I *D sky130_fd_sc_hd__nand3b_1
*I *1485:X O *D sky130_fd_sc_hd__a211o_1
*CAP
1 *1486:C 0.00017883
2 *1485:X 0.00017883
3 *1486:C *1486:A_N 3.50746e-05
4 *1486:C *213:8 2.37867e-05
5 *1486:B *1486:C 0.000269372
*RES
1 *1485:X *1486:C 22.0286 
*END

*D_NET *213 0.00265816
*CONN
*I *1487:B I *D sky130_fd_sc_hd__nand2_2
*I *1619:A2 I *D sky130_fd_sc_hd__a221o_1
*I *1486:Y O *D sky130_fd_sc_hd__nand3b_1
*CAP
1 *1487:B 1.62043e-05
2 *1619:A2 0.000160774
3 *1486:Y 0.000382509
4 *213:8 0.000559487
5 *1619:A2 *1495:A2 1.96517e-05
6 *1619:A2 *1618:B1 0.000168471
7 *1619:A2 *1619:B1 3.28686e-05
8 *1619:A2 *468:36 2.37944e-05
9 *213:8 *1486:A_N 0.000207026
10 *213:8 *1500:A 3.50746e-05
11 *213:8 *1614:A1_N 0.000305404
12 *213:8 *214:8 2.59355e-05
13 *213:8 *468:53 2.93936e-05
14 *1486:B *213:8 9.99853e-05
15 *1486:C *213:8 2.37867e-05
16 *1487:A *1487:B 2.59355e-05
17 *1487:A *213:8 3.04164e-05
18 *1612:A *213:8 1.21258e-05
19 *1619:A1 *1619:A2 0.000327463
20 *149:43 *1619:A2 0.00017185
*RES
1 *1486:Y *213:8 18.4786 
2 *213:8 *1619:A2 23.6125 
3 *213:8 *1487:B 9.83571 
*END

*D_NET *214 0.00207311
*CONN
*I *1613:A I *D sky130_fd_sc_hd__nor2_1
*I *1501:A1 I *D sky130_fd_sc_hd__o21bai_4
*I *1618:B1 I *D sky130_fd_sc_hd__o22a_1
*I *1487:Y O *D sky130_fd_sc_hd__nand2_2
*CAP
1 *1613:A 0.000115988
2 *1501:A1 0
3 *1618:B1 9.08393e-05
4 *1487:Y 4.70928e-05
5 *214:23 0.000227182
6 *214:8 0.000249127
7 *1613:A *1501:A2 2.69894e-05
8 *1613:A *1613:B 0.000177596
9 *1613:A *228:39 0.000308007
10 *1618:B1 *1500:A 3.24964e-05
11 *1618:B1 *468:36 4.41329e-06
12 *214:23 *1500:A 6.53506e-05
13 *214:23 *1501:A2 9.41642e-05
14 *214:23 *228:39 3.97677e-05
15 *1482:A *1613:A 2.10974e-05
16 *1619:A2 *1618:B1 0.000168471
17 *149:43 *1618:B1 0.000237319
18 *149:43 *214:23 0.000141277
19 *213:8 *214:8 2.59355e-05
*RES
1 *1487:Y *214:8 14.3357 
2 *214:8 *1618:B1 16.9607 
3 *214:8 *214:23 7.39286 
4 *214:23 *1501:A1 9.3 
5 *214:23 *1613:A 13.1571 
*END

*D_NET *215 0.00128367
*CONN
*I *1492:A I *D sky130_fd_sc_hd__nand3_1
*I *1494:B1 I *D sky130_fd_sc_hd__a21oi_1
*I *1488:Y O *D sky130_fd_sc_hd__inv_2
*CAP
1 *1492:A 0.000250959
2 *1494:B1 0
3 *1488:Y 5.94775e-05
4 *215:6 0.000310437
5 *1492:A *1494:A1 0.000364284
6 *1492:A *1494:A2 5.52238e-05
7 *1492:A *218:8 0.000223461
8 *1492:A *221:10 9.99644e-06
9 *1492:A *314:29 5.79582e-06
10 *215:6 *221:10 4.0342e-06
*RES
1 *1488:Y *215:6 10.2464 
2 *215:6 *1494:B1 9.3 
3 *215:6 *1492:A 24.1929 
*END

*D_NET *216 0.00251129
*CONN
*I *1492:B I *D sky130_fd_sc_hd__nand3_1
*I *1494:A1 I *D sky130_fd_sc_hd__a21oi_1
*I *1489:Y O *D sky130_fd_sc_hd__o211ai_1
*CAP
1 *1492:B 0
2 *1494:A1 0.000257501
3 *1489:Y 0.000226861
4 *216:6 0.000484362
5 *1494:A1 *314:29 4.72217e-05
6 *216:6 *1489:A1 0.000120519
7 *216:6 *1490:A 5.49489e-05
8 *216:6 *1491:A1 0.000227526
9 *216:6 *217:10 0.000570215
10 *216:6 *480:33 0.000157853
11 *1492:A *1494:A1 0.000364284
*RES
1 *1489:Y *216:6 17.6393 
2 *216:6 *1494:A1 22.2286 
3 *216:6 *1492:B 9.3 
*END

*D_NET *217 0.00446842
*CONN
*I *1491:A1 I *D sky130_fd_sc_hd__o21bai_1
*I *1623:A2 I *D sky130_fd_sc_hd__o32a_1
*I *1493:B I *D sky130_fd_sc_hd__or2_1
*I *1624:A2 I *D sky130_fd_sc_hd__o21ai_1
*I *1490:Y O *D sky130_fd_sc_hd__inv_2
*CAP
1 *1491:A1 0.000187869
2 *1623:A2 1.91209e-05
3 *1493:B 1.60352e-05
4 *1624:A2 0.000134878
5 *1490:Y 0
6 *217:16 0.000351465
7 *217:10 0.000922634
8 *217:4 0.00089083
9 *1491:A1 *477:23 0.000125724
10 *1491:A1 *478:23 0.000125724
11 *1493:B *1493:A 5.7661e-06
12 *1623:A2 *1493:A 0
13 *1624:A2 *383:48 0
14 *1624:A2 *461:14 3.34295e-05
15 *1624:A2 *461:27 9.22948e-05
16 *1624:A2 *461:33 6.05161e-06
17 *1624:A2 *480:33 8.25843e-06
18 *217:10 *1492:C 9.41642e-05
19 *217:10 *1622:A_N 5.52238e-05
20 *217:10 *1624:B1 3.18676e-05
21 *217:10 *219:6 1.46231e-05
22 *217:10 *335:6 0.00012113
23 *217:10 *480:33 2.54304e-06
24 *217:16 *1493:A 1.04232e-05
25 *217:16 *1623:A1 0.000197136
26 *217:16 *1624:B1 2.44318e-05
27 *217:16 *1625:B1 9.60875e-05
28 *217:16 *461:33 4.58194e-05
29 *1623:B1 *217:10 5.71472e-05
30 *216:6 *1491:A1 0.000227526
31 *216:6 *217:10 0.000570215
*RES
1 *1490:Y *217:4 9.3 
2 *217:4 *217:10 11.3571 
3 *217:10 *217:16 3.96429 
4 *217:16 *1624:A2 20.4786 
5 *217:16 *1493:B 9.72857 
6 *217:10 *1623:A2 9.72857 
7 *217:4 *1491:A1 22.1214 
*END

*D_NET *218 0.00194217
*CONN
*I *1492:C I *D sky130_fd_sc_hd__nand3_1
*I *1494:A2 I *D sky130_fd_sc_hd__a21oi_1
*I *1491:Y O *D sky130_fd_sc_hd__o21bai_1
*CAP
1 *1492:C 0.000112217
2 *1494:A2 2.08056e-05
3 *1491:Y 0.000463192
4 *218:8 0.000596215
5 *1492:C *219:6 1.98839e-05
6 *1492:C *221:10 5.9483e-05
7 *1492:C *221:23 2.8266e-06
8 *1492:C *335:6 5.33005e-05
9 *1492:C *339:61 0.000168939
10 *218:8 *477:23 3.67257e-05
11 *1491:A2 *218:8 3.57366e-05
12 *1492:A *1494:A2 5.52238e-05
13 *1492:A *218:8 0.000223461
14 *217:10 *1492:C 9.41642e-05
*RES
1 *1491:Y *218:8 17.9607 
2 *218:8 *1494:A2 9.83571 
3 *218:8 *1492:C 21.4964 
*END

*D_NET *219 0.00234371
*CONN
*I *1622:B I *D sky130_fd_sc_hd__and2b_1
*I *1619:B1 I *D sky130_fd_sc_hd__a221o_1
*I *1495:A1 I *D sky130_fd_sc_hd__a21oi_2
*I *1492:Y O *D sky130_fd_sc_hd__nand3_1
*CAP
1 *1622:B 0
2 *1619:B1 0.000131357
3 *1495:A1 0
4 *1492:Y 4.0336e-05
5 *219:16 0.000334121
6 *219:6 0.0002431
7 *1619:B1 *1495:A2 0.000125919
8 *1619:B1 *1495:B1 0
9 *1619:B1 *1619:B2 7.41329e-06
10 *1619:B1 *1619:C1 0.0003032
11 *219:6 *335:6 4.18895e-05
12 *219:6 *480:33 0.000136682
13 *219:16 *1619:C1 1.98839e-05
14 *219:16 *221:23 0.000330637
15 *219:16 *222:8 5.5474e-05
16 *219:16 *335:6 0.000185643
17 *219:16 *480:33 0.000181796
18 *1492:C *219:6 1.98839e-05
19 *1619:A2 *1619:B1 3.28686e-05
20 *1623:B1 *219:16 0.000138881
21 *217:10 *219:6 1.46231e-05
*RES
1 *1492:Y *219:6 10.6571 
2 *219:6 *219:16 15.6786 
3 *219:16 *1495:A1 9.3 
4 *219:16 *1619:B1 13.1571 
5 *219:6 *1622:B 9.3 
*END

*D_NET *220 0.00214933
*CONN
*I *1495:A2 I *D sky130_fd_sc_hd__a21oi_2
*I *1619:B2 I *D sky130_fd_sc_hd__a221o_1
*I *1645:A2_N I *D sky130_fd_sc_hd__a2bb2o_1
*I *1493:X O *D sky130_fd_sc_hd__or2_1
*CAP
1 *1495:A2 0.000286034
2 *1619:B2 2.52024e-05
3 *1645:A2_N 0.000291413
4 *1493:X 9.99741e-05
5 *220:10 0.000702623
6 *1495:A2 *1619:C1 8.97655e-06
7 *1619:B2 *1619:C1 1.55208e-05
8 *1645:A2_N *1619:C1 3.39028e-05
9 *220:10 *1621:B1 0.000262941
10 *220:10 *1625:A3 7.83587e-05
11 *220:10 *254:48 0.000191403
12 *1619:A2 *1495:A2 1.96517e-05
13 *1619:B1 *1495:A2 0.000125919
14 *1619:B1 *1619:B2 7.41329e-06
*RES
1 *1493:X *220:10 21.7643 
2 *220:10 *1645:A2_N 12.8714 
3 *220:10 *1619:B2 10.2018 
4 *220:10 *1495:A2 13.7286 
*END

*D_NET *221 0.00320344
*CONN
*I *1495:B1 I *D sky130_fd_sc_hd__a21oi_2
*I *1619:C1 I *D sky130_fd_sc_hd__a221o_1
*I *1622:A_N I *D sky130_fd_sc_hd__and2b_1
*I *1494:Y O *D sky130_fd_sc_hd__a21oi_1
*CAP
1 *1495:B1 6.56047e-05
2 *1619:C1 0.000300581
3 *1622:A_N 1.1624e-05
4 *1494:Y 0.000215885
5 *221:23 0.000549296
6 *221:10 0.000410619
7 *1619:C1 *1620:B2 0.000136951
8 *1622:A_N *335:6 5.52238e-05
9 *221:10 *1621:B1 0
10 *221:10 *1625:B1 0
11 *221:10 *339:61 0
12 *221:23 *222:8 2.09846e-05
13 *221:23 *339:61 3.77553e-05
14 *1492:A *221:10 9.99644e-06
15 *1492:C *221:10 5.9483e-05
16 *1492:C *221:23 2.8266e-06
17 *1495:A2 *1619:C1 8.97655e-06
18 *1537:A *1495:B1 9.41642e-05
19 *1537:A *1619:C1 4.18895e-05
20 *1619:B1 *1495:B1 0
21 *1619:B1 *1619:C1 0.0003032
22 *1619:B2 *1619:C1 1.55208e-05
23 *1623:B1 *221:10 2.8266e-06
24 *1623:B1 *221:23 1.18451e-05
25 *1623:B2 *1619:C1 0.000136958
26 *1645:A2_N *1619:C1 3.39028e-05
27 *153:27 *221:23 0.000267544
28 *215:6 *221:10 4.0342e-06
29 *217:10 *1622:A_N 5.52238e-05
30 *219:16 *1619:C1 1.98839e-05
31 *219:16 *221:23 0.000330637
*RES
1 *1494:Y *221:10 17.4964 
2 *221:10 *1622:A_N 14.3357 
3 *221:10 *221:23 10.0893 
4 *221:23 *1619:C1 16.3134 
5 *221:23 *1495:B1 10.675 
*END

*D_NET *222 0.00263641
*CONN
*I *1613:B I *D sky130_fd_sc_hd__nor2_1
*I *1501:A2 I *D sky130_fd_sc_hd__o21bai_4
*I *1618:B2 I *D sky130_fd_sc_hd__o22a_1
*I *1495:Y O *D sky130_fd_sc_hd__a21oi_2
*CAP
1 *1613:B 5.77164e-05
2 *1501:A2 9.03219e-05
3 *1618:B2 2.64118e-05
4 *1495:Y 0.000125043
5 *222:21 0.000360341
6 *222:8 0.000363757
7 *1501:A2 *1614:A2_N 1.00733e-05
8 *1501:A2 *228:6 3.45371e-05
9 *1501:A2 *228:39 1.47872e-05
10 *1613:B *1614:A2_N 7.02155e-05
11 *1618:B2 *339:61 5.03772e-05
12 *1618:B2 *468:53 9.67754e-05
13 *222:21 *1614:A1_N 0.0001428
14 *222:21 *1614:A2_N 2.95642e-05
15 *1482:A *1501:A2 8.8175e-05
16 *1482:A *1613:B 8.43535e-06
17 *1612:B *222:21 6.62859e-05
18 *1613:A *1501:A2 2.69894e-05
19 *1613:A *1613:B 0.000177596
20 *1623:B1 *222:8 0.000188118
21 *148:51 *222:8 0.000146317
22 *148:51 *222:21 9.15842e-06
23 *149:43 *222:8 3.4095e-05
24 *149:43 *222:21 0.000109277
25 *153:27 *222:8 4.038e-06
26 *153:27 *222:21 0.000134587
27 *214:23 *1501:A2 9.41642e-05
28 *219:16 *222:8 5.5474e-05
29 *221:23 *222:8 2.09846e-05
*RES
1 *1495:Y *222:8 17.2643 
2 *222:8 *1618:B2 14.7464 
3 *222:8 *222:21 9.48214 
4 *222:21 *1501:A2 11.925 
5 *222:21 *1613:B 11.0679 
*END

*D_NET *223 0.00319561
*CONN
*I *1502:A2 I *D sky130_fd_sc_hd__a21o_2
*I *1499:A I *D sky130_fd_sc_hd__nand3_1
*I *1611:A2 I *D sky130_fd_sc_hd__a21oi_1
*I *1496:X O *D sky130_fd_sc_hd__a211o_1
*CAP
1 *1502:A2 0
2 *1499:A 0.000502647
3 *1611:A2 5.69604e-05
4 *1496:X 0.000273531
5 *223:18 0.000615706
6 *223:14 0.00032963
7 *1499:A *1499:B 2.35827e-05
8 *1499:A *229:10 7.69776e-06
9 *1499:A *229:16 1.7275e-05
10 *1499:A *314:29 0.000144896
11 *1499:A *469:70 9.97669e-05
12 *1499:A *486:70 0
13 *1611:A2 *1502:B1 3.91683e-06
14 *1611:A2 *1611:B1 2.01186e-05
15 *1611:A2 *229:10 5.8526e-05
16 *1611:A2 *229:16 3.96365e-05
17 *1611:A2 *469:60 1.84046e-05
18 *223:14 *225:14 0.000139202
19 *223:14 *229:16 0.000125732
20 *223:14 *486:70 0.000214095
21 *223:18 *1502:B1 5.04841e-06
22 *223:18 *225:14 5.65955e-05
23 *223:18 *229:16 0.000229623
24 *223:18 *469:47 4.73286e-05
25 *223:18 *469:60 2.18269e-05
26 *1481:A1 *223:14 1.38323e-05
27 *1481:A2 *223:14 0.000111444
28 *1485:A1 *223:14 6.14702e-06
29 *1497:B1 *223:14 0
30 *151:26 *223:14 1.24368e-05
*RES
1 *1496:X *223:14 23.8714 
2 *223:14 *223:18 2.60714 
3 *223:18 *1611:A2 11.4339 
4 *223:18 *1499:A 34.1929 
5 *223:14 *1502:A2 9.3 
*END

*D_NET *224 0.00184118
*CONN
*I *1498:A I *D sky130_fd_sc_hd__nand2_1
*I *1497:Y O *D sky130_fd_sc_hd__o31ai_1
*CAP
1 *1498:A 0.000465296
2 *1497:Y 0.000465296
3 *1498:A *1481:B1 0.00014281
4 *1498:A *254:33 2.62426e-05
5 *1498:A *469:47 6.43824e-05
6 *1498:A *478:53 0.000193323
7 *1498:A *484:10 0
8 *1496:C1 *1498:A 0.000303396
9 *1497:B1 *1498:A 0.000180429
*RES
1 *1497:Y *1498:A 37.7786 
*END

*D_NET *225 0.00387738
*CONN
*I *1502:A1 I *D sky130_fd_sc_hd__a21o_2
*I *1611:A1 I *D sky130_fd_sc_hd__a21oi_1
*I *1499:C I *D sky130_fd_sc_hd__nand3_1
*I *1498:Y O *D sky130_fd_sc_hd__nand2_1
*CAP
1 *1502:A1 0
2 *1611:A1 1.31864e-05
3 *1499:C 0.000340324
4 *1498:Y 0.000195218
5 *225:26 0.000738216
6 *225:14 0.000579923
7 *1499:C *1614:A1_N 2.22043e-05
8 *1499:C *1614:A2_N 1.90936e-05
9 *1499:C *1614:B1 0.000213535
10 *1499:C *226:14 0.000124471
11 *1499:C *481:37 0.000206852
12 *1611:A1 *229:16 4.6025e-06
13 *1611:A1 *314:29 9.60337e-06
14 *225:14 *229:16 0.000259664
15 *225:14 *469:47 0.000692768
16 *225:26 *1614:B1 5.45595e-05
17 *225:26 *481:37 0.000102387
18 *225:26 *486:70 4.19624e-06
19 *1497:B1 *225:14 0.000100777
20 *223:14 *225:14 0.000139202
21 *223:18 *225:14 5.65955e-05
*RES
1 *1498:Y *225:14 26.3536 
2 *225:14 *225:26 9.01085 
3 *225:26 *1499:C 19.9681 
4 *225:26 *1611:A1 17.4868 
5 *225:14 *1502:A1 9.3 
*END

*D_NET *226 0.00196059
*CONN
*I *1614:B2 I *D sky130_fd_sc_hd__a2bb2o_1
*I *1500:A I *D sky130_fd_sc_hd__nand2_1
*I *1499:Y O *D sky130_fd_sc_hd__nand3_1
*CAP
1 *1614:B2 0
2 *1500:A 0.000355703
3 *1499:Y 0.00014578
4 *226:14 0.000501483
5 *1500:A *1614:A1_N 2.14757e-05
6 *1500:A *1614:A2_N 0.000139485
7 *1500:A *1615:B1 5.26392e-05
8 *1500:A *254:63 9.24495e-06
9 *1500:A *468:36 0.000195703
10 *226:14 *1611:B1 0
11 *226:14 *1614:A2_N 9.71197e-05
12 *226:14 *1615:B2 7.11713e-05
13 *1487:A *1500:A 6.05161e-06
14 *1499:C *226:14 0.000124471
15 *1618:B1 *1500:A 3.24964e-05
16 *149:43 *1500:A 5.89318e-05
17 *209:18 *1500:A 4.84073e-05
18 *213:8 *1500:A 3.50746e-05
19 *214:23 *1500:A 6.53506e-05
*RES
1 *1499:Y *226:14 12.8893 
2 *226:14 *1500:A 25.8179 
3 *226:14 *1614:B2 9.3 
*END

*D_NET *227 0.000659865
*CONN
*I *1501:B1_N I *D sky130_fd_sc_hd__o21bai_4
*I *1500:Y O *D sky130_fd_sc_hd__nand2_1
*CAP
1 *1501:B1_N 0.000180106
2 *1500:Y 0.000180106
3 *1482:B *1501:B1_N 2.13687e-05
4 *173:30 *1501:B1_N 0.000144988
5 *209:14 *1501:B1_N 0.000129819
6 *209:18 *1501:B1_N 3.47702e-06
*RES
1 *1500:Y *1501:B1_N 30.9036 
*END

*D_NET *228 0.0129846
*CONN
*I *1607:A1 I *D sky130_fd_sc_hd__a21o_1
*I *1511:B I *D sky130_fd_sc_hd__nand4_2
*I *1588:A I *D sky130_fd_sc_hd__nand3_1
*I *1601:C1 I *D sky130_fd_sc_hd__o2111ai_2
*I *1615:B1 I *D sky130_fd_sc_hd__o221ai_1
*I *1501:Y O *D sky130_fd_sc_hd__o21bai_4
*CAP
1 *1607:A1 0.000146682
2 *1511:B 0.000183519
3 *1588:A 2.41864e-05
4 *1601:C1 2.25455e-05
5 *1615:B1 0.000226322
6 *1501:Y 3.88308e-05
7 *228:56 0.000336072
8 *228:43 0.000291713
9 *228:39 0.00292024
10 *228:6 0.00289791
11 *1511:B *1511:C 0
12 *1511:B *1511:D 7.48444e-05
13 *1511:B *1599:A1_N 9.7049e-06
14 *1511:B *263:100 0.000235015
15 *1511:B *317:18 0.000217806
16 *1588:A *1588:B 6.10501e-05
17 *1588:A *1597:A1 0
18 *1607:A1 *1608:C 0.000182806
19 *1615:B1 *1615:B2 7.83659e-05
20 *1615:B1 *254:63 0.000346068
21 *1615:B1 *468:36 5.66971e-05
22 *228:6 *468:36 3.45371e-05
23 *228:39 *1481:B1 0.000280965
24 *228:39 *1496:B1 1.24368e-05
25 *228:39 *492:29 0.00015038
26 *228:43 *1601:D1 5.50052e-05
27 *228:43 *1608:C 0.000111276
28 *228:43 *318:12 1.21258e-05
29 *228:43 *492:29 0.000431371
30 *228:56 *263:100 0.000315953
31 *228:56 *317:18 0.000314231
32 *228:56 *492:29 9.58632e-05
33 *1481:A1 *228:39 2.56811e-05
34 *1481:A2 *228:39 1.03037e-05
35 *1482:A *1615:B1 3.06878e-06
36 *1482:A *228:6 5.04841e-06
37 *1482:A *228:39 2.57826e-06
38 *1497:B1 *228:39 5.80494e-05
39 *1500:A *1615:B1 5.26392e-05
40 *1501:A2 *228:6 3.45371e-05
41 *1501:A2 *228:39 1.47872e-05
42 *1511:A *1511:B 0.000144773
43 *1613:A *228:39 0.000308007
44 *1696:A1 *228:39 0.00112405
45 *3:23 *228:39 0
46 *149:43 *1615:B1 3.01126e-05
47 *150:48 *228:39 0.000592217
48 *151:26 *228:39 0.000110393
49 *166:47 *228:39 8.79617e-05
50 *173:162 *228:39 2.97537e-05
51 *208:14 *228:39 0.000146348
52 *214:23 *228:39 3.97677e-05
*RES
1 *1501:Y *228:6 10.3357 
2 *228:6 *1615:B1 23.6214 
3 *228:6 *228:39 40.0162 
4 *228:39 *228:43 4.85714 
5 *228:43 *1601:C1 9.72857 
6 *228:43 *228:56 9.51786 
7 *228:56 *1588:A 14.5321 
8 *228:56 *1511:B 19.2821 
9 *228:39 *1607:A1 11.4786 
*END

*D_NET *229 0.00944366
*CONN
*I *1614:B1 I *D sky130_fd_sc_hd__a2bb2o_1
*I *1588:B I *D sky130_fd_sc_hd__nand3_1
*I *1511:C I *D sky130_fd_sc_hd__nand4_2
*I *1601:D1 I *D sky130_fd_sc_hd__o2111ai_2
*I *1607:A2 I *D sky130_fd_sc_hd__a21o_1
*I *1502:X O *D sky130_fd_sc_hd__a21o_2
*CAP
1 *1614:B1 0.00040254
2 *1588:B 0.000183939
3 *1511:C 0.000137313
4 *1601:D1 2.1231e-05
5 *1607:A2 0
6 *1502:X 4.48693e-05
7 *229:22 0.000141871
8 *229:18 0.000257954
9 *229:16 0.00252218
10 *229:10 0.00278565
11 *1511:C *1511:D 0.000118131
12 *1511:C *1597:B1 0
13 *1511:C *1608:A 0.000264137
14 *1511:C *237:12 1.76135e-05
15 *1511:C *263:100 0
16 *1601:D1 *1608:C 1.32056e-05
17 *1601:D1 *318:12 6.05161e-06
18 *1614:B1 *1614:A1_N 9.25014e-06
19 *229:10 *469:60 9.66977e-05
20 *229:16 *1448:B1 6.68839e-05
21 *229:16 *314:29 0
22 *229:16 *469:47 4.40153e-05
23 *229:16 *486:70 0
24 *229:22 *1608:A 0.000337145
25 *229:22 *237:12 0.000170603
26 *1447:B *229:16 4.35567e-05
27 *1447:C *229:16 0.000399419
28 *1448:A1 *229:16 0.000185118
29 *1448:A2 *229:16 2.8626e-05
30 *1499:A *229:10 7.69776e-06
31 *1499:A *229:16 1.7275e-05
32 *1499:C *1614:B1 0.000213535
33 *1511:A *1511:C 4.46186e-06
34 *1511:B *1511:C 0
35 *1588:A *1588:B 6.10501e-05
36 *1611:A1 *229:16 4.6025e-06
37 *1611:A2 *229:10 5.8526e-05
38 *1611:A2 *229:16 3.96365e-05
39 *149:43 *1614:B1 4.09488e-06
40 *153:27 *1614:B1 1.01912e-05
41 *223:14 *229:16 0.000125732
42 *223:18 *229:16 0.000229623
43 *225:14 *229:16 0.000259664
44 *225:26 *1614:B1 5.45595e-05
45 *228:43 *1601:D1 5.50052e-05
*RES
1 *1502:X *229:10 15.0232 
2 *229:10 *229:16 34.1518 
3 *229:16 *229:18 4.5 
4 *229:18 *229:22 8.875 
5 *229:22 *1607:A2 9.3 
6 *229:22 *1601:D1 9.83571 
7 *229:18 *1511:C 17.8 
8 *229:16 *1588:B 11.8 
9 *229:10 *1614:B1 21.7365 
*END

*D_NET *230 0.00476413
*CONN
*I *1601:A2 I *D sky130_fd_sc_hd__o2111ai_2
*I *1510:A1 I *D sky130_fd_sc_hd__o2111a_1
*I *1606:A1 I *D sky130_fd_sc_hd__o22a_1
*I *1503:Y O *D sky130_fd_sc_hd__a21oi_2
*CAP
1 *1601:A2 0.00066716
2 *1510:A1 6.75886e-05
3 *1606:A1 2.23854e-05
4 *1503:Y 0.000290715
5 *230:23 0.00103802
6 *230:6 0.000616372
7 *1510:A1 *1604:C1 5.71472e-05
8 *1601:A2 *1604:A1 0.00018077
9 *1601:A2 *1604:A2 0.000126409
10 *1601:A2 *1604:B1 2.89016e-05
11 *1601:A2 *1604:B2 1.76135e-05
12 *1601:A2 *318:12 0
13 *1601:A2 *385:102 4.76016e-06
14 *1601:A2 *388:139 0
15 *1601:A2 *470:26 0
16 *1601:A2 *492:29 0.000123734
17 *230:6 *1503:B1 5.65955e-05
18 *230:6 *1607:B1 0.000306491
19 *230:6 *236:10 5.71472e-05
20 *230:23 *1509:B 5.33005e-05
21 *230:23 *1604:A1 0.000295137
22 *230:23 *236:10 9.77414e-05
23 *1465:A1 *1606:A1 0
24 *1465:A1 *230:6 9.31893e-05
25 *1609:A2 *230:6 0.000133496
26 *185:18 *230:6 0.000279554
27 *193:16 *230:23 0.000149896
*RES
1 *1503:Y *230:6 16.8179 
2 *230:6 *1606:A1 9.72857 
3 *230:6 *230:23 15.7857 
4 *230:23 *1510:A1 10.675 
5 *230:23 *1601:A2 28.5143 
*END

*D_NET *231 0.00440013
*CONN
*I *1510:A2 I *D sky130_fd_sc_hd__o2111a_1
*I *1601:A1 I *D sky130_fd_sc_hd__o2111ai_2
*I *1606:A2 I *D sky130_fd_sc_hd__o22a_1
*I *1504:X O *D sky130_fd_sc_hd__a31o_1
*CAP
1 *1510:A2 7.98506e-05
2 *1601:A1 0.000238932
3 *1606:A2 0.000233834
4 *1504:X 0.000368385
5 *231:31 0.000621739
6 *231:12 0.000905176
7 *1510:A2 *1510:B1 1.24368e-05
8 *1510:A2 *235:25 3.06878e-06
9 *1601:A1 *1601:B1 3.7274e-05
10 *1601:A1 *234:19 5.03187e-06
11 *1601:A1 *235:25 9.94881e-05
12 *1601:A1 *236:25 3.31806e-05
13 *1606:A2 *1608:C 2.37761e-05
14 *1606:A2 *1609:B1 0.000147474
15 *1606:A2 *317:18 0.000218012
16 *231:12 *1603:A4 4.18895e-05
17 *231:12 *1608:B 0.00013478
18 *231:12 *263:92 0.000367516
19 *231:31 *1510:B1 0.000181803
20 *231:31 *1602:A2 8.43535e-06
21 *231:31 *1608:C 4.038e-06
22 *231:31 *237:12 0.000137983
23 *231:31 *317:18 0.00012401
24 *231:31 *318:20 0.000103267
25 *1465:A1 *1606:A2 0.000145826
26 *185:18 *1606:A2 8.21714e-05
27 *193:16 *1601:A1 4.07549e-05
*RES
1 *1504:X *231:12 20.1214 
2 *231:12 *1606:A2 19.675 
3 *231:12 *231:31 9.55357 
4 *231:31 *1601:A1 22.6571 
5 *231:31 *1510:A2 10.2464 
*END

*D_NET *232 0.00140488
*CONN
*I *1507:A I *D sky130_fd_sc_hd__nand3_2
*I *1505:X O *D sky130_fd_sc_hd__a21o_1
*CAP
1 *1507:A 0.00042042
2 *1505:X 0.00042042
3 *1453:A2 *1507:A 2.61551e-05
4 *1461:C *1507:A 5.71472e-05
5 *1504:A1 *1507:A 7.54868e-05
6 *1505:A1 *1507:A 2.84109e-05
7 *1505:A2 *1507:A 2.84026e-05
8 *1505:B1 *1507:A 2.23592e-05
9 *172:68 *1507:A 0
10 *173:162 *1507:A 0.000326074
*RES
1 *1505:X *1507:A 34.975 
*END

*D_NET *233 0.00160746
*CONN
*I *1507:C I *D sky130_fd_sc_hd__nand3_2
*I *1506:X O *D sky130_fd_sc_hd__a211o_1
*CAP
1 *1507:C 0.000364656
2 *1506:X 0.000364656
3 *1507:C *1424:A 1.21258e-05
4 *1507:C *1507:B 5.90821e-05
5 *1507:C *234:6 0.000115831
6 *1507:C *237:12 0
7 *1507:C *469:37 0.00048709
8 *1506:A1 *1507:C 5.33005e-05
9 *1506:A2 *1507:C 9.71197e-05
10 *148:35 *1507:C 5.36e-05
*RES
1 *1506:X *1507:C 28.1893 
*END

*D_NET *234 0.00345239
*CONN
*I *1601:B1 I *D sky130_fd_sc_hd__o2111ai_2
*I *1510:B1 I *D sky130_fd_sc_hd__o2111a_1
*I *1603:A3 I *D sky130_fd_sc_hd__a41o_1
*I *1602:B1 I *D sky130_fd_sc_hd__a22oi_1
*I *1507:Y O *D sky130_fd_sc_hd__nand3_2
*CAP
1 *1601:B1 5.51486e-05
2 *1510:B1 9.44571e-05
3 *1603:A3 0.00014965
4 *1602:B1 0
5 *1507:Y 0.000311851
6 *234:19 0.000306508
7 *234:17 0.000304651
8 *234:6 0.000498952
9 *1510:B1 *1602:A1 1.15281e-05
10 *1510:B1 *1602:A2 5.03772e-05
11 *1510:B1 *235:25 9.99644e-06
12 *1601:B1 *263:100 0.000115018
13 *1603:A3 *1603:A2 4.3825e-05
14 *1603:A3 *1603:A4 0.000309876
15 *1603:A3 *1603:B1 0.00014183
16 *1603:A3 *236:25 7.10743e-05
17 *1603:A3 *263:100 0.000147121
18 *234:6 *1507:B 5.63217e-05
19 *234:6 *1602:B2 5.33005e-05
20 *234:6 *1604:B1 5.38242e-05
21 *234:6 *237:12 5.30637e-06
22 *234:6 *469:37 9.22103e-06
23 *234:17 *1602:A1 0.000181107
24 *234:17 *237:12 9.22103e-06
25 *234:19 *236:25 2.30389e-05
26 *234:19 *263:100 8.68118e-05
27 *1507:C *234:6 0.000115831
28 *1510:A2 *1510:B1 1.24368e-05
29 *1601:A1 *1601:B1 3.7274e-05
30 *1601:A1 *234:19 5.03187e-06
31 *231:31 *1510:B1 0.000181803
*RES
1 *1507:Y *234:6 14.7643 
2 *234:6 *1602:B1 9.3 
3 *234:6 *234:17 7.10714 
4 *234:17 *234:19 1.33929 
5 *234:19 *1603:A3 18.7464 
6 *234:19 *1510:B1 16.3 
7 *234:17 *1601:B1 15.4429 
*END

*D_NET *235 0.00292947
*CONN
*I *1510:C1 I *D sky130_fd_sc_hd__o2111a_1
*I *1602:A1 I *D sky130_fd_sc_hd__a22oi_1
*I *1603:A1 I *D sky130_fd_sc_hd__a41o_1
*I *1508:Y O *D sky130_fd_sc_hd__o211ai_2
*CAP
1 *1510:C1 0
2 *1602:A1 0.000137692
3 *1603:A1 0
4 *1508:Y 0.000319565
5 *235:25 0.000409232
6 *235:8 0.000591106
7 *1602:A1 *1602:A2 0.000205748
8 *1602:A1 *237:12 2.03334e-05
9 *235:8 *1509:B 0.000202835
10 *235:8 *236:10 5.10822e-05
11 *235:8 *236:25 1.52978e-05
12 *235:8 *471:31 7.35492e-05
13 *235:25 *236:25 3.8361e-05
14 *1465:A1 *235:8 0.000364967
15 *1509:A *235:8 1.18064e-05
16 *1510:A2 *235:25 3.06878e-06
17 *1510:B1 *1602:A1 1.15281e-05
18 *1510:B1 *235:25 9.99644e-06
19 *1601:A1 *235:25 9.94881e-05
20 *1606:B2 *235:8 0
21 *193:16 *235:8 4.93504e-05
22 *193:16 *235:25 0.000133359
23 *234:17 *1602:A1 0.000181107
*RES
1 *1508:Y *235:8 21.5143 
2 *235:8 *1603:A1 13.8 
3 *235:8 *235:25 9.57143 
4 *235:25 *1602:A1 12.8536 
5 *235:25 *1510:C1 9.3 
*END

*D_NET *236 0.00173492
*CONN
*I *1510:D1 I *D sky130_fd_sc_hd__o2111a_1
*I *1602:A2 I *D sky130_fd_sc_hd__a22oi_1
*I *1603:A2 I *D sky130_fd_sc_hd__a41o_1
*I *1509:Y O *D sky130_fd_sc_hd__nand2_1
*CAP
1 *1510:D1 0
2 *1602:A2 5.77816e-05
3 *1603:A2 9.88457e-05
4 *1509:Y 0.000164167
5 *236:25 0.000203975
6 *236:10 0.000409206
7 *1602:A2 *237:12 4.25966e-05
8 *1603:A2 *1603:B1 5.52302e-05
9 *236:10 *317:18 0
10 *236:25 *263:100 7.80714e-06
11 *236:25 *317:18 0
12 *1510:B1 *1602:A2 5.03772e-05
13 *1601:A1 *236:25 3.31806e-05
14 *1602:A1 *1602:A2 0.000205748
15 *1603:A3 *1603:A2 4.3825e-05
16 *1603:A3 *236:25 7.10743e-05
17 *230:6 *236:10 5.71472e-05
18 *230:23 *236:10 9.77414e-05
19 *231:31 *1602:A2 8.43535e-06
20 *234:19 *236:25 2.30389e-05
21 *235:8 *236:10 5.10822e-05
22 *235:8 *236:25 1.52978e-05
23 *235:25 *236:25 3.8361e-05
*RES
1 *1509:Y *236:10 16.4964 
2 *236:10 *1603:A2 15.5857 
3 *236:10 *236:25 7.66071 
4 *236:25 *1602:A2 11.3179 
5 *236:25 *1510:D1 9.3 
*END

*D_NET *237 0.00237589
*CONN
*I *1511:D I *D sky130_fd_sc_hd__nand4_2
*I *1588:C I *D sky130_fd_sc_hd__nand3_1
*I *1510:X O *D sky130_fd_sc_hd__o2111a_1
*CAP
1 *1511:D 0.000241623
2 *1588:C 0
3 *1510:X 0.000362708
4 *237:12 0.00060433
5 *1511:D *1599:A1_N 0
6 *1511:D *238:8 7.43578e-06
7 *1511:D *317:18 9.80029e-05
8 *237:12 *1608:A 8.43163e-06
9 *237:12 *317:18 0.000305292
10 *237:12 *318:12 0.000120348
11 *237:12 *318:20 3.10819e-05
12 *1507:C *237:12 0
13 *1511:B *1511:D 7.48444e-05
14 *1511:C *1511:D 0.000118131
15 *1511:C *237:12 1.76135e-05
16 *1602:A1 *237:12 2.03334e-05
17 *1602:A2 *237:12 4.25966e-05
18 *229:22 *237:12 0.000170603
19 *231:31 *237:12 0.000137983
20 *234:6 *237:12 5.30637e-06
21 *234:17 *237:12 9.22103e-06
*RES
1 *1510:X *237:12 23.1036 
2 *237:12 *1588:C 13.8 
3 *237:12 *1511:D 19.5143 
*END

*D_NET *238 0.00714149
*CONN
*I *1517:A2 I *D sky130_fd_sc_hd__a21oi_1
*I *1564:A2 I *D sky130_fd_sc_hd__a21boi_1
*I *1555:B I *D sky130_fd_sc_hd__nand2_2
*I *1511:Y O *D sky130_fd_sc_hd__nand4_2
*CAP
1 *1517:A2 7.80761e-05
2 *1564:A2 7.61068e-05
3 *1555:B 0
4 *1511:Y 0.00125983
5 *238:19 0.00024239
6 *238:10 0.000824266
7 *238:8 0.00199589
8 *1517:A2 *1742:A 5.26743e-05
9 *1517:A2 *244:10 5.59013e-05
10 *1564:A2 *385:92 0.00016602
11 *238:8 *266:6 1.60719e-05
12 *238:8 *266:119 8.12542e-05
13 *238:10 *1596:A 0.000246572
14 *238:10 *1661:A3 4.5258e-05
15 *238:10 *1661:B1 1.0993e-05
16 *238:10 *278:10 0
17 *238:10 *486:70 0
18 *238:19 *1742:A 3.65665e-05
19 *1449:A1 *238:8 0.000112985
20 *1450:B1 *238:8 6.52148e-05
21 *1511:D *238:8 7.43578e-06
22 *1517:A1 *1517:A2 0.000221975
23 *1517:A1 *238:19 4.63001e-05
24 *1553:A *238:10 2.09215e-05
25 *1564:A1 *1564:A2 0.00016602
26 *1660:B2 *238:8 0.000158225
27 *1790:D *238:10 0.000449896
28 *1790:RESET_B *238:10 0
29 *3:23 *238:10 7.27028e-05
30 *150:8 *238:8 0.00039604
31 *162:56 *238:10 9.48771e-05
32 *162:56 *238:19 1.12578e-05
33 *173:20 *238:10 0
34 *205:24 *238:10 1.00887e-05
35 *205:24 *238:19 0.00011968
*RES
1 *1511:Y *238:8 34.8714 
2 *238:8 *238:10 15.3036 
3 *238:10 *1555:B 13.8 
4 *238:10 *238:19 2.25 
5 *238:19 *1564:A2 16.8 
6 *238:19 *1517:A2 16.6571 
*END

*D_NET *239 0.00696938
*CONN
*I *1516:A I *D sky130_fd_sc_hd__nand4_1
*I *1556:A I *D sky130_fd_sc_hd__and2_1
*I *1584:A I *D sky130_fd_sc_hd__or2_1
*I *1578:B I *D sky130_fd_sc_hd__nand2_1
*I *1585:A2 I *D sky130_fd_sc_hd__a21oi_1
*I *1512:X O *D sky130_fd_sc_hd__xor2_2
*CAP
1 *1516:A 0.000344112
2 *1556:A 3.08679e-05
3 *1584:A 0.000137722
4 *1578:B 0.000186125
5 *1585:A2 3.86022e-05
6 *1512:X 0
7 *239:49 0.000714392
8 *239:34 0.000560172
9 *239:6 0.000410149
10 *239:4 0.00026846
11 *1516:A *1516:C 0.000296441
12 *1516:A *1517:B1 0.000136708
13 *1516:A *1556:B 2.84109e-05
14 *1516:A *1564:B1_N 5.31965e-05
15 *1516:A *279:55 0.000357925
16 *1516:A *280:12 3.18747e-05
17 *1516:A *385:92 0.000274689
18 *1516:A *389:157 7.49752e-05
19 *1556:A *1556:B 3.09839e-05
20 *1556:A *240:12 1.87331e-05
21 *1556:A *385:92 5.33005e-05
22 *1578:B *1585:A1 5.09584e-05
23 *1578:B *360:164 0
24 *1578:B *474:25 0.000354152
25 *1584:A *303:133 0.000178847
26 *1585:A2 *1586:B2 5.62995e-05
27 *1585:A2 *389:36 9.90367e-05
28 *239:6 *1586:B2 9.80346e-05
29 *239:6 *389:36 0.000517566
30 *239:34 *1581:A2 5.83367e-05
31 *239:34 *389:36 5.33005e-05
32 *239:49 *279:55 0
33 *239:49 *303:133 0.000383624
34 *239:49 *389:10 0.000370332
35 *149:70 *239:34 0.000121423
36 *160:35 *239:49 5.14942e-05
37 *160:39 *1584:A 0.000347173
38 *160:39 *239:49 0.000180959
39 *163:22 *239:49 0
*RES
1 *1512:X *239:4 9.3 
2 *239:4 *239:6 5.05357 
3 *239:6 *1585:A2 10.675 
4 *239:6 *1578:B 22.9786 
5 *239:4 *239:34 11.1786 
6 *239:34 *1584:A 12.7107 
7 *239:34 *239:49 17.8036 
8 *239:49 *1556:A 10.2643 
9 *239:49 *1516:A 28.8893 
*END

*D_NET *240 0.00316033
*CONN
*I *1580:A3 I *D sky130_fd_sc_hd__a31o_1
*I *1579:B1 I *D sky130_fd_sc_hd__a21oi_1
*I *1556:B I *D sky130_fd_sc_hd__and2_1
*I *1516:B I *D sky130_fd_sc_hd__nand4_1
*I *1513:X O *D sky130_fd_sc_hd__xor2_2
*CAP
1 *1580:A3 0
2 *1579:B1 0.000127861
3 *1556:B 8.82366e-05
4 *1516:B 0.000149818
5 *1513:X 4.45684e-05
6 *240:36 0.000147239
7 *240:12 0.000454234
8 *240:6 0.000280126
9 *1516:B *1565:A2 4.06087e-07
10 *1516:B *1577:C_N 0.000309336
11 *1516:B *1679:A0 5.59369e-05
12 *1516:B *1824:A 0.000194822
13 *1556:B *1565:A2 2.37867e-05
14 *1556:B *280:12 1.32056e-05
15 *1556:B *298:6 5.33005e-05
16 *1556:B *385:92 2.60585e-05
17 *1579:B1 *1579:A2 6.52296e-05
18 *1579:B1 *1580:A2 0.000120368
19 *1579:B1 *1581:B1 1.25275e-05
20 *1579:B1 *254:82 7.17717e-05
21 *1579:B1 *279:8 9.67754e-05
22 *1579:B1 *299:6 2.38501e-05
23 *240:6 *1581:B2 1.58163e-05
24 *240:6 *385:92 4.27126e-05
25 *240:12 *1577:C_N 9.5932e-05
26 *240:12 *1580:A1 2.79421e-05
27 *240:12 *298:6 3.18324e-05
28 *240:12 *385:92 0.000508508
29 *1516:A *1556:B 2.84109e-05
30 *1556:A *1556:B 3.09839e-05
31 *1556:A *240:12 1.87331e-05
*RES
1 *1513:X *240:6 10.2732 
2 *240:6 *240:12 6.1875 
3 *240:12 *1516:B 22.9071 
4 *240:12 *1556:B 11.4964 
5 *240:6 *240:36 0.508929 
6 *240:36 *1579:B1 21.6214 
7 *240:36 *1580:A3 9.3 
*END

*D_NET *241 0.00583464
*CONN
*I *1567:B I *D sky130_fd_sc_hd__nand3_1
*I *1566:B1 I *D sky130_fd_sc_hd__a21oi_1
*I *1558:A3 I *D sky130_fd_sc_hd__a41o_1
*I *1516:C I *D sky130_fd_sc_hd__nand4_1
*I *1514:X O *D sky130_fd_sc_hd__xor2_2
*CAP
1 *1567:B 8.72383e-06
2 *1566:B1 0.000539071
3 *1558:A3 1.69531e-05
4 *1516:C 0.000327358
5 *1514:X 0.000149124
6 *241:40 0.00070109
7 *241:12 0.000795999
8 *241:10 0.000754107
9 *1516:C *1517:B1 2.42516e-05
10 *1516:C *1558:A1 0.000121842
11 *1516:C *1573:A1 2.47724e-05
12 *1516:C *279:55 2.84705e-05
13 *1516:C *389:157 0.00022117
14 *1558:A3 *1558:A4 5.33005e-05
15 *1558:A3 *1558:B1 5.33005e-05
16 *1566:B1 *1567:A 2.50961e-06
17 *1566:B1 *1568:B1 0.000411408
18 *1566:B1 *1570:A1 9.84673e-05
19 *1567:B *1566:A1 5.46383e-06
20 *1567:B *1567:A 1.02132e-05
21 *241:10 *389:157 0.000149113
22 *241:12 *1438:A1 0
23 *241:12 *280:12 0
24 *241:12 *389:157 0.000778683
25 *241:40 *1567:A 3.1001e-05
26 *1516:A *1516:C 0.000296441
27 *1568:A1 *1566:B1 3.50746e-05
28 *1568:A2 *1566:B1 5.49995e-05
29 *149:104 *241:10 0.000141729
*RES
1 *1514:X *241:10 17.1036 
2 *241:10 *241:12 10.1429 
3 *241:12 *1516:C 20.8893 
4 *241:12 *1558:A3 14.3357 
5 *241:10 *241:40 7.23214 
6 *241:40 *1566:B1 18.55 
7 *241:40 *1567:B 9.72857 
*END

*D_NET *242 0.00281647
*CONN
*I *1573:B1 I *D sky130_fd_sc_hd__a211o_1
*I *1558:A4 I *D sky130_fd_sc_hd__a41o_1
*I *1565:B1 I *D sky130_fd_sc_hd__o21ai_2
*I *1516:D I *D sky130_fd_sc_hd__nand4_1
*I *1515:X O *D sky130_fd_sc_hd__xor2_2
*CAP
1 *1573:B1 0
2 *1558:A4 0.000138833
3 *1565:B1 0
4 *1516:D 0.000178094
5 *1515:X 9.79405e-05
6 *242:29 0.000318866
7 *242:23 0.000180033
8 *242:10 0.000276035
9 *1516:D *1573:A1 0.000185467
10 *1558:A4 *1558:A1 5.49489e-05
11 *1558:A4 *1558:A2 0.000228514
12 *1558:A4 *1558:B1 5.98558e-05
13 *242:29 *1558:B1 3.41517e-06
14 *242:29 *1565:A1 5.33005e-05
15 *242:29 *1565:A2 0.0001399
16 *242:29 *1573:A2 3.08548e-05
17 *242:29 *286:16 4.84963e-05
18 *242:29 *288:10 0.000177821
19 *1438:B1 *242:10 9.90367e-05
20 *1558:A3 *1558:A4 5.33005e-05
21 *1562:B *1516:D 0.000216815
22 *1562:B *242:10 0.000142969
23 *153:41 *1516:D 3.01126e-05
24 *153:41 *242:10 4.66385e-05
25 *165:10 *242:10 5.52238e-05
*RES
1 *1515:X *242:10 16.6929 
2 *242:10 *1516:D 18.0143 
3 *242:10 *242:23 4.5 
4 *242:23 *242:29 4.26786 
5 *242:29 *1565:B1 9.3 
6 *242:29 *1558:A4 12.7107 
7 *242:23 *1573:B1 9.3 
*END

*D_NET *243 0.00184237
*CONN
*I *1517:B1 I *D sky130_fd_sc_hd__a21oi_1
*I *1516:Y O *D sky130_fd_sc_hd__nand4_1
*CAP
1 *1517:B1 0.000497533
2 *1516:Y 0.000497533
3 *1517:B1 *1573:A1 0.000307722
4 *1517:B1 *389:157 0
5 *1516:A *1517:B1 0.000136708
6 *1516:C *1517:B1 2.42516e-05
7 *1520:A2 *1517:B1 6.61828e-05
8 *1557:B1 *1517:B1 6.15171e-05
9 *159:41 *1517:B1 0.000137983
10 *173:107 *1517:B1 5.49489e-05
11 *200:50 *1517:B1 2.59355e-05
12 *200:54 *1517:B1 3.20501e-05
*RES
1 *1516:Y *1517:B1 37.7964 
*END

*D_NET *244 0.00182517
*CONN
*I *1523:A2 I *D sky130_fd_sc_hd__o21bai_2
*I *1544:A2 I *D sky130_fd_sc_hd__o21bai_2
*I *1517:Y O *D sky130_fd_sc_hd__a21oi_1
*CAP
1 *1523:A2 0.000173374
2 *1544:A2 0
3 *1517:Y 0.000314591
4 *244:10 0.000487965
5 *1523:A2 *1523:B1_N 4.72818e-05
6 *1523:A2 *1742:A 1.04707e-05
7 *1523:A2 *269:12 7.56759e-05
8 *1523:A2 *269:31 8.07313e-05
9 *244:10 *1742:A 0.000379045
10 *244:10 *278:10 0
11 *1517:A2 *244:10 5.59013e-05
12 *1520:A1 *244:10 0
13 *1523:A1 *1523:A2 0.000100182
14 *1523:A1 *244:10 2.83284e-06
15 *159:41 *244:10 0
16 *200:50 *244:10 9.71197e-05
*RES
1 *1517:Y *244:10 20.3357 
2 *244:10 *1544:A2 13.8 
3 *244:10 *1523:A2 17.9429 
*END

*D_NET *245 0.00347726
*CONN
*I *1547:B1 I *D sky130_fd_sc_hd__o211ai_1
*I *1522:A I *D sky130_fd_sc_hd__nand3_1
*I *1545:B1 I *D sky130_fd_sc_hd__a21oi_1
*I *1518:X O *D sky130_fd_sc_hd__xor2_1
*CAP
1 *1547:B1 0
2 *1522:A 0.00012226
3 *1545:B1 0.000131435
4 *1518:X 0.000560845
5 *245:16 0.000358888
6 *245:12 0.000666039
7 *1522:A *1545:A1 9.20464e-06
8 *1522:A *246:16 0.000191901
9 *1522:A *250:6 9.90367e-05
10 *1522:A *269:31 0.00014784
11 *1545:B1 *1545:A1 5.33005e-05
12 *1545:B1 *1547:C1 2.99316e-05
13 *1545:B1 *1550:A1 8.43535e-06
14 *245:12 *1519:A 0.000143468
15 *245:12 *1550:A1 0.000125731
16 *245:12 *1551:C 1.44587e-05
17 *245:12 *1552:A 0
18 *245:12 *1552:B 3.9733e-05
19 *245:12 *246:10 0.000117009
20 *245:12 *246:16 4.1331e-06
21 *245:12 *380:103 0.000143633
22 *245:12 *460:10 0.000268657
23 *245:16 *1547:C1 0.000108082
24 *1514:B *245:12 9.41642e-05
25 *161:86 *245:12 3.90718e-05
*RES
1 *1518:X *245:12 30.2286 
2 *245:12 *245:16 2.19643 
3 *245:16 *1545:B1 11.4964 
4 *245:16 *1522:A 21.8 
5 *245:12 *1547:B1 9.3 
*END

*D_NET *246 0.00479406
*CONN
*I *1551:C I *D sky130_fd_sc_hd__or3_1
*I *1547:A1 I *D sky130_fd_sc_hd__o211ai_1
*I *1525:A2 I *D sky130_fd_sc_hd__a221o_1
*I *1521:B1 I *D sky130_fd_sc_hd__a311o_1
*I *1520:B1 I *D sky130_fd_sc_hd__o21ai_1
*I *1519:Y O *D sky130_fd_sc_hd__inv_2
*CAP
1 *1551:C 0.000101456
2 *1547:A1 0
3 *1525:A2 0.000148609
4 *1521:B1 1.77121e-05
5 *1520:B1 0.000169034
6 *1519:Y 0.000103247
7 *246:33 0.000215529
8 *246:16 0.000533157
9 *246:10 0.000583467
10 *246:8 0.000473255
11 *1520:B1 *1522:B 4.1331e-06
12 *1520:B1 *1543:B 5.71472e-05
13 *1520:B1 *1544:B1_N 2.14658e-05
14 *1520:B1 *1557:A1 1.92789e-05
15 *1520:B1 *247:19 2.00751e-05
16 *1520:B1 *248:6 3.67257e-05
17 *1520:B1 *248:17 0.000148196
18 *1520:B1 *248:32 2.31791e-05
19 *1520:B1 *383:177 0.000114592
20 *1525:A2 *1521:A1 8.43535e-06
21 *1551:C *1552:A 2.1069e-05
22 *1551:C *266:161 7.02212e-05
23 *246:8 *1519:A 2.85234e-05
24 *246:8 *266:161 2.60673e-05
25 *246:10 *1550:A1 6.42338e-05
26 *246:10 *1550:B1_N 5.66657e-05
27 *246:10 *1552:A 0.000133613
28 *246:10 *278:10 0
29 *246:16 *1545:A1 0
30 *246:16 *1547:A2 0.000473684
31 *246:16 *248:17 0
32 *246:16 *248:32 0
33 *246:16 *269:31 1.31516e-05
34 *246:16 *460:10 0
35 *246:33 *1521:A1 5.71472e-05
36 *1521:A2 *246:33 2.14757e-05
37 *1521:C1 *1521:B1 9.35228e-06
38 *1521:C1 *1525:A2 1.98839e-05
39 *1521:C1 *246:33 2.14658e-05
40 *1522:A *246:16 0.000191901
41 *1525:B2 *1525:A2 4.12298e-05
42 *1525:C1 *1525:A2 9.90431e-05
43 *1551:A *1551:C 5.63821e-05
44 *173:91 *1525:A2 0.000102103
45 *173:107 *1520:B1 0.000122091
46 *173:107 *1525:A2 0.000129837
47 *173:107 *246:33 0.000100625
48 *245:12 *1551:C 1.44587e-05
49 *245:12 *246:10 0.000117009
50 *245:12 *246:16 4.1331e-06
*RES
1 *1519:Y *246:8 15.1571 
2 *246:8 *246:10 6.5 
3 *246:10 *246:16 12.0357 
4 *246:16 *1520:B1 23.675 
5 *246:16 *246:33 1.76786 
6 *246:33 *1521:B1 9.72857 
7 *246:33 *1525:A2 13.6973 
8 *246:10 *1547:A1 13.8 
9 *246:8 *1551:C 16.4295 
*END

*D_NET *247 0.00221966
*CONN
*I *1522:B I *D sky130_fd_sc_hd__nand3_1
*I *1543:B I *D sky130_fd_sc_hd__nand2_1
*I *1557:A2 I *D sky130_fd_sc_hd__a21o_1
*I *1520:Y O *D sky130_fd_sc_hd__o21ai_1
*CAP
1 *1522:B 0.000203622
2 *1543:B 4.49966e-05
3 *1557:A2 0.000175593
4 *1520:Y 0
5 *247:19 0.000262629
6 *247:6 0.000189603
7 *1522:B *1522:C 9.90367e-05
8 *1522:B *1523:B1_N 2.44318e-05
9 *1522:B *1545:A1 0
10 *1522:B *248:32 0
11 *1522:B *250:6 0.00014285
12 *1522:B *278:10 0.000180937
13 *1543:B *1543:A 0
14 *1543:B *1544:B1_N 9.90431e-05
15 *1557:A2 *1557:A1 0.00020916
16 *1557:A2 *278:10 0.000147833
17 *1557:A2 *383:177 0.000149554
18 *247:19 *278:10 4.90803e-05
19 *247:19 *383:177 1.02504e-05
20 *1520:A1 *1543:B 1.21371e-05
21 *1520:B1 *1522:B 4.1331e-06
22 *1520:B1 *1543:B 5.71472e-05
23 *1520:B1 *247:19 2.00751e-05
24 *173:107 *1557:A2 0.000137546
*RES
1 *1520:Y *247:6 13.8 
2 *247:6 *1557:A2 19.5679 
3 *247:6 *247:19 0.732143 
4 *247:19 *1543:B 15.175 
5 *247:19 *1522:B 18.2464 
*END

*D_NET *248 0.0031998
*CONN
*I *1545:A1 I *D sky130_fd_sc_hd__a21oi_1
*I *1522:C I *D sky130_fd_sc_hd__nand3_1
*I *1543:A I *D sky130_fd_sc_hd__nand2_1
*I *1557:A1 I *D sky130_fd_sc_hd__a21o_1
*I *1521:X O *D sky130_fd_sc_hd__a311o_1
*CAP
1 *1545:A1 0.000224998
2 *1522:C 5.23801e-05
3 *1543:A 4.97315e-05
4 *1557:A1 0.000467786
5 *1521:X 6.26235e-05
6 *248:32 0.000435792
7 *248:17 0.000350797
8 *248:6 0.000673062
9 *1522:C *1523:B1_N 5.71472e-05
10 *1543:A *383:177 4.74489e-06
11 *1545:A1 *1550:A1 2.46387e-05
12 *1545:A1 *1550:B1_N 0.000150618
13 *1545:A1 *269:31 1.01241e-05
14 *1545:A1 *278:10 0
15 *248:17 *1547:A2 0
16 *248:17 *383:177 2.15759e-05
17 *1520:B1 *1557:A1 1.92789e-05
18 *1520:B1 *248:6 3.67257e-05
19 *1520:B1 *248:17 0.000148196
20 *1520:B1 *248:32 2.31791e-05
21 *1522:A *1545:A1 9.20464e-06
22 *1522:B *1522:C 9.90367e-05
23 *1522:B *1545:A1 0
24 *1522:B *248:32 0
25 *1543:B *1543:A 0
26 *1545:B1 *1545:A1 5.33005e-05
27 *1557:A2 *1557:A1 0.00020916
28 *173:107 *1557:A1 1.57023e-05
29 *246:16 *1545:A1 0
30 *246:16 *248:17 0
31 *246:16 *248:32 0
*RES
1 *1521:X *248:6 10.2464 
2 *248:6 *1557:A1 15.175 
3 *248:6 *248:17 7.35714 
4 *248:17 *1543:A 14.8268 
5 *248:17 *248:32 2.25 
6 *248:32 *1522:C 15.175 
7 *248:32 *1545:A1 17.8 
*END

*D_NET *249 0.00103661
*CONN
*I *1523:B1_N I *D sky130_fd_sc_hd__o21bai_2
*I *1522:Y O *D sky130_fd_sc_hd__nand3_1
*CAP
1 *1523:B1_N 0.000352828
2 *1522:Y 0.000352828
3 *1523:B1_N *250:6 1.02936e-05
4 *1523:B1_N *269:31 1.00073e-05
5 *1522:B *1523:B1_N 2.44318e-05
6 *1522:C *1523:B1_N 5.71472e-05
7 *1523:A1 *1523:B1_N 0.000181796
8 *1523:A2 *1523:B1_N 4.72818e-05
*RES
1 *1522:Y *1523:B1_N 23.5643 
*END

*D_NET *250 0.00430677
*CONN
*I *1526:B1 I *D sky130_fd_sc_hd__a22oi_1
*I *1538:A1 I *D sky130_fd_sc_hd__a31oi_1
*I *1536:A1 I *D sky130_fd_sc_hd__a21o_1
*I *1523:Y O *D sky130_fd_sc_hd__o21bai_2
*CAP
1 *1526:B1 0.000300387
2 *1538:A1 0
3 *1536:A1 0.00012518
4 *1523:Y 0.000475376
5 *250:6 0.000900943
6 *1526:B1 *1532:A2_N 0.000103467
7 *1526:B1 *1538:B1 0.000394502
8 *1526:B1 *1539:B 1.98839e-05
9 *1526:B1 *256:8 3.5298e-05
10 *1526:B1 *483:32 0.000271339
11 *1536:A1 *1538:A3 0.000146066
12 *1536:A1 *252:25 8.25137e-05
13 *1536:A1 *261:10 2.89114e-05
14 *1536:A1 *266:155 2.82057e-05
15 *1536:A1 *483:32 3.10885e-05
16 *250:6 *1538:A3 5.33005e-05
17 *250:6 *1539:B 0.000141965
18 *250:6 *1549:A1 2.28499e-05
19 *250:6 *1549:B1 5.33005e-05
20 *250:6 *1550:B1_N 0.000201714
21 *250:6 *256:8 0.000160433
22 *250:6 *269:31 0.000357952
23 *1522:A *250:6 9.90367e-05
24 *1522:B *250:6 0.00014285
25 *1523:A1 *250:6 4.87854e-05
26 *1523:B1_N *250:6 1.02936e-05
27 *1526:A2 *1526:B1 1.83136e-05
28 *1594:A2 *1526:B1 5.28157e-05
29 *1594:A3 *1526:B1 0
*RES
1 *1523:Y *250:6 22.1571 
2 *250:6 *1536:A1 21.3893 
3 *250:6 *1538:A1 9.3 
4 *250:6 *1526:B1 26.3357 
*END

*D_NET *251 0.00366798
*CONN
*I *1542:B2 I *D sky130_fd_sc_hd__o2bb2ai_1
*I *1549:A1 I *D sky130_fd_sc_hd__a31o_1
*I *1525:A1 I *D sky130_fd_sc_hd__a221o_1
*I *1524:Y O *D sky130_fd_sc_hd__inv_2
*CAP
1 *1542:B2 0
2 *1549:A1 6.18755e-05
3 *1525:A1 0.000174163
4 *1524:Y 8.77406e-05
5 *251:16 0.000934622
6 *251:6 0.000786325
7 *1525:A1 *256:21 0.000363396
8 *1525:A1 *460:10 0
9 *1549:A1 *1549:B1 1.24368e-05
10 *1549:A1 *256:8 2.44266e-05
11 *251:6 *380:103 0.000141036
12 *251:16 *1539:B 5.80217e-05
13 *251:16 *1542:A2_N 0.000631082
14 *251:16 *256:21 5.58941e-05
15 *251:16 *266:155 0
16 *251:16 *380:103 0.000141941
17 *251:16 *381:52 0
18 *251:16 *460:10 0
19 *1525:B1 *1525:A1 1.02504e-05
20 *1549:A2 *1525:A1 0.000133715
21 *1549:A2 *251:16 2.82057e-05
22 *161:86 *251:16 0
23 *250:6 *1549:A1 2.28499e-05
*RES
1 *1524:Y *251:6 10.6571 
2 *251:6 *251:16 18.7857 
3 *251:16 *1525:A1 18.4786 
4 *251:16 *1549:A1 15.1929 
5 *251:6 *1542:B2 9.3 
*END

*D_NET *252 0.00260109
*CONN
*I *1526:B2 I *D sky130_fd_sc_hd__a22oi_1
*I *1536:A2 I *D sky130_fd_sc_hd__a21o_1
*I *1538:A2 I *D sky130_fd_sc_hd__a31oi_1
*I *1525:X O *D sky130_fd_sc_hd__a221o_1
*CAP
1 *1526:B2 0.000236877
2 *1536:A2 0
3 *1538:A2 0
4 *1525:X 0.000311968
5 *252:25 0.000533497
6 *252:12 0.000608587
7 *1526:B2 *1535:A 9.58181e-05
8 *1526:B2 *1536:B1 3.99614e-06
9 *1526:B2 *261:10 1.73124e-05
10 *252:12 *256:8 0.000227539
11 *252:12 *256:21 0.000139288
12 *252:12 *266:155 0
13 *252:25 *1535:A 1.00332e-05
14 *252:25 *1646:C 0
15 *252:25 *256:8 0.0001399
16 *252:25 *483:32 9.89464e-05
17 *1526:A2 *1526:B2 2.42516e-05
18 *1536:A1 *252:25 8.25137e-05
19 *1594:A2 *252:25 1.89365e-05
20 *161:68 *1526:B2 4.58194e-05
21 *173:91 *252:12 5.80706e-06
*RES
1 *1525:X *252:12 23.9429 
2 *252:12 *1538:A2 9.3 
3 *252:12 *252:25 13.8214 
4 *252:25 *1536:A2 9.3 
5 *252:25 *1526:B2 13.1393 
*END

*D_NET *253 0.00081119
*CONN
*I *1532:A2_N I *D sky130_fd_sc_hd__a2bb2o_1
*I *1526:Y O *D sky130_fd_sc_hd__a22oi_1
*CAP
1 *1532:A2_N 0.000209555
2 *1526:Y 0.000209555
3 *1532:A2_N *1526:A1 0
4 *1532:A2_N *1646:C 6.65429e-05
5 *1532:A2_N *390:113 2.36643e-05
6 *1437:C1 *1532:A2_N 9.77118e-05
7 *1526:B1 *1532:A2_N 0.000103467
8 *1532:A1_N *1532:A2_N 5.49544e-05
9 *1594:A2 *1532:A2_N 4.15183e-05
10 *1594:A3 *1532:A2_N 0
11 *161:66 *1532:A2_N 4.22135e-06
*RES
1 *1526:Y *1532:A2_N 32.4929 
*END

*D_NET *254 0.0239471
*CONN
*I *1559:A2 I *D sky130_fd_sc_hd__a22o_1
*I *1549:A3 I *D sky130_fd_sc_hd__a31o_1
*I *1574:A2 I *D sky130_fd_sc_hd__a22o_1
*I *1528:B I *D sky130_fd_sc_hd__nand2_2
*I *1620:A3 I *D sky130_fd_sc_hd__a32o_1
*I *1625:A3 I *D sky130_fd_sc_hd__a32o_1
*I *1609:A3 I *D sky130_fd_sc_hd__a31o_1
*I *1527:Y O *D sky130_fd_sc_hd__nand2_4
*CAP
1 *1559:A2 0
2 *1549:A3 0.000538328
3 *1574:A2 5.63928e-05
4 *1528:B 4.45237e-05
5 *1620:A3 4.05994e-05
6 *1625:A3 0.000163389
7 *1609:A3 0.00116902
8 *1527:Y 0.000131865
9 *254:99 0.00134075
10 *254:82 0.00199596
11 *254:63 0.00177408
12 *254:48 0.000831663
13 *254:33 0.00178731
14 *254:10 0.00272615
15 *1528:B *306:12 9.90431e-05
16 *1528:B *361:42 0.000227263
17 *1528:B *383:156 6.82569e-05
18 *1549:A3 *269:12 6.27272e-06
19 *1549:A3 *359:95 0.00135637
20 *1549:A3 *384:108 6.82085e-05
21 *1549:A3 *384:135 0.000426539
22 *1549:A3 *389:157 0
23 *1574:A2 *1616:B1 5.12468e-05
24 *1609:A3 *1458:A1 3.61629e-06
25 *1609:A3 *325:14 2.13481e-06
26 *1609:A3 *470:46 1.58163e-05
27 *1609:A3 *480:33 0.000198758
28 *1625:A3 *1621:B1 7.66515e-05
29 *1625:A3 *1624:A1 0
30 *1625:A3 *1624:B1 0.000170654
31 *1625:A3 *467:31 4.72931e-05
32 *254:10 *480:33 9.00943e-05
33 *254:33 *1443:A 2.84026e-05
34 *254:33 *1497:A2 3.28686e-05
35 *254:33 *476:32 0.000119502
36 *254:33 *476:45 8.36572e-05
37 *254:48 *1620:B2 9.11365e-06
38 *254:48 *1621:B1 0.000104768
39 *254:63 *1615:C1 0.000153047
40 *254:63 *1849:A 0
41 *254:63 *468:36 0.000176478
42 *254:82 *1438:A3 0.000303368
43 *254:82 *1580:B1 0.00011022
44 *254:82 *1581:B1 1.55857e-05
45 *254:82 *1586:B1 0.000332173
46 *254:82 *1681:A0 0.000142904
47 *254:82 *1849:A 0
48 *254:82 *278:61 0.000503037
49 *254:82 *303:133 0.00019087
50 *254:82 *306:12 6.09572e-05
51 *254:82 *462:23 5.15925e-05
52 *254:82 *474:57 6.97972e-05
53 *254:82 *491:61 0.000299235
54 *254:99 *1438:A3 0.000256563
55 *254:99 *1559:B1 7.08862e-05
56 *254:99 *1559:B2 0.000122267
57 *254:99 *1561:B1 4.13122e-06
58 *254:99 *269:12 1.49645e-05
59 *254:99 *462:32 2.14658e-05
60 *1454:A *1609:A3 0.000183726
61 *1454:B *1609:A3 1.21032e-05
62 *1457:A1 *1609:A3 0
63 *1458:A2 *1609:A3 2.12087e-05
64 *1489:A2 *254:33 0.000183477
65 *1498:A *254:33 2.62426e-05
66 *1500:A *254:63 9.24495e-06
67 *1549:A2 *1549:A3 2.11419e-05
68 *1562:B *1574:A2 1.71615e-05
69 *1574:A1 *1549:A3 3.4846e-06
70 *1574:A1 *254:99 3.17419e-05
71 *1579:B1 *254:82 7.17717e-05
72 *1615:B1 *254:63 0.000346068
73 *1619:A1 *254:48 0
74 *1619:A1 *254:63 2.74981e-06
75 *1625:A2 *1620:A3 4.12281e-05
76 *1625:A2 *1625:A3 0.000184517
77 *1625:A2 *254:48 0.0004108
78 *1644:A2 *254:33 0.000519489
79 *148:16 *254:33 6.8646e-06
80 *149:70 *254:63 0
81 *149:70 *254:82 0.000242703
82 *153:12 *254:33 0.000858756
83 *153:41 *1574:A2 0.000150625
84 *155:26 *1609:A3 0.000179445
85 *165:10 *254:99 1.80285e-05
86 *170:21 *254:33 0.000272371
87 *170:25 *254:10 6.98302e-05
88 *170:25 *254:33 7.6644e-05
89 *170:31 *254:10 9.25014e-06
90 *173:30 *1620:A3 6.01243e-05
91 *173:30 *254:63 0.000452232
92 *179:14 *1609:A3 3.24707e-05
93 *179:40 *1609:A3 2.1692e-05
94 *185:18 *1609:A3 0.000354056
95 *220:10 *1625:A3 7.83587e-05
96 *220:10 *254:48 0.000191403
*RES
1 *1527:Y *254:10 16.1929 
2 *254:10 *1609:A3 29.0321 
3 *254:10 *254:33 32.375 
4 *254:33 *1625:A3 18.5321 
5 *254:33 *254:48 6.04464 
6 *254:48 *1620:A3 15.0232 
7 *254:48 *254:63 15.0804 
8 *254:63 *1528:B 15.9786 
9 *254:63 *254:82 31.1607 
10 *254:82 *1574:A2 20.2464 
11 *254:82 *254:99 15.1071 
12 *254:99 *1549:A3 23.3105 
13 *254:99 *1559:A2 13.8 
*END

*D_NET *255 0.0190117
*CONN
*I *1581:A2 I *D sky130_fd_sc_hd__o22ai_1
*I *1531:A1 I *D sky130_fd_sc_hd__a21oi_1
*I *1604:A2 I *D sky130_fd_sc_hd__o221a_1
*I *1608:A I *D sky130_fd_sc_hd__and3_1
*I *1616:A2 I *D sky130_fd_sc_hd__o211ai_1
*I *1528:Y O *D sky130_fd_sc_hd__nand2_2
*CAP
1 *1581:A2 0.000953575
2 *1531:A1 0.000655231
3 *1604:A2 0.000542044
4 *1608:A 0.000665653
5 *1616:A2 0.000106261
6 *1528:Y 3.24478e-05
7 *255:52 0.00167305
8 *255:35 0.00359244
9 *255:10 0.00263715
10 *255:8 0.0010659
11 *1531:A1 *1530:B 0
12 *1531:A1 *1531:B1 2.38501e-05
13 *1531:A1 *256:59 8.21712e-05
14 *1531:A1 *258:16 0.000141941
15 *1531:A1 *321:23 0
16 *1531:A1 *385:102 0.000357492
17 *1531:A1 *400:28 0
18 *1531:A1 *472:12 0.000185408
19 *1581:A2 *1580:B1 0
20 *1581:A2 *1581:B1 0.000307343
21 *1581:A2 *1647:C1 2.22043e-05
22 *1581:A2 *485:22 0.000146261
23 *1604:A2 *321:23 0
24 *1604:A2 *385:102 0.000693142
25 *1608:A *1607:B1 0.000103321
26 *1608:A *1608:C 0.000350736
27 *1608:A *263:92 5.33005e-05
28 *1608:A *469:37 0.000171368
29 *1616:A2 *1616:B1 0.000110627
30 *255:8 *361:42 4.58194e-05
31 *255:8 *383:156 9.66977e-05
32 *255:35 *303:20 2.66026e-05
33 *255:52 *1597:B1 9.90431e-05
34 *255:52 *308:18 8.44071e-05
35 *1472:A2 *255:35 4.02462e-05
36 *1511:A *1608:A 5.0725e-05
37 *1511:C *1608:A 0.000264137
38 *1528:A *255:10 8.08022e-05
39 *1601:A2 *1604:A2 0.000126409
40 *1767:D *1604:A2 0
41 *149:43 *1616:A2 2.8266e-06
42 *149:70 *1581:A2 0.000193909
43 *149:70 *1616:A2 9.27685e-05
44 *149:70 *255:10 5.44167e-05
45 *153:41 *1581:A2 0.000509171
46 *153:41 *1616:A2 7.29452e-05
47 *153:41 *255:10 4.43046e-05
48 *161:20 *1581:A2 0.000261463
49 *163:111 *1531:A1 8.27748e-05
50 *172:21 *255:35 5.8649e-05
51 *172:38 *255:35 0.000437749
52 *173:20 *255:35 0.000554699
53 *173:75 *255:35 4.70078e-05
54 *173:152 *255:35 0.00020662
55 *173:158 *1608:A 0
56 *173:162 *1608:A 0
57 *193:44 *255:52 0.000225616
58 *193:71 *255:52 0.000175015
59 *229:22 *1608:A 0.000337145
60 *237:12 *1608:A 8.43163e-06
61 *239:34 *1581:A2 5.83367e-05
*RES
1 *1528:Y *255:8 14.7464 
2 *255:8 *255:10 2.25 
3 *255:10 *1616:A2 16.9607 
4 *255:10 *255:35 48.1964 
5 *255:35 *1608:A 33.5321 
6 *255:35 *255:52 12.8393 
7 *255:52 *1604:A2 26.1214 
8 *255:52 *1531:A1 30.05 
9 *255:8 *1581:A2 32.5857 
*END

*D_NET *256 0.0132959
*CONN
*I *1697:D I *D sky130_fd_sc_hd__or4_1
*I *1627:A I *D sky130_fd_sc_hd__nand2_8
*I *1700:B I *D sky130_fd_sc_hd__or2_1
*I *1703:A2 I *D sky130_fd_sc_hd__o211ai_1
*I *1530:A I *D sky130_fd_sc_hd__and2_1
*I *1646:A I *D sky130_fd_sc_hd__and3_1
*I *1582:A I *D sky130_fd_sc_hd__clkbuf_4
*I *1549:B1 I *D sky130_fd_sc_hd__a31o_1
*I *1529:Y O *D sky130_fd_sc_hd__inv_2
*CAP
1 *1697:D 0
2 *1627:A 0
3 *1700:B 0.000110633
4 *1703:A2 0.000134411
5 *1530:A 0
6 *1646:A 0.000261506
7 *1582:A 1.93873e-05
8 *1549:B1 2.3143e-05
9 *1529:Y 0
10 *256:83 0.000110633
11 *256:72 0.000334169
12 *256:68 0.000429348
13 *256:59 0.000997615
14 *256:21 0.000806587
15 *256:8 0.00134565
16 *256:4 0.00156484
17 *1582:A *483:61 9.84729e-05
18 *1646:A *266:119 0.000185229
19 *1646:A *266:155 0.000174001
20 *1646:A *473:32 0.00018077
21 *1646:A *483:61 8.52379e-05
22 *1700:B *1700:A 5.52302e-05
23 *1700:B *339:6 1.83053e-05
24 *1700:B *339:139 4.03248e-05
25 *1700:B *400:22 0.000310955
26 *1703:A2 *339:10 5.65164e-05
27 *1703:A2 *339:16 4.73045e-05
28 *1703:A2 *359:20 8.55197e-05
29 *256:8 *1538:A3 5.52302e-05
30 *256:8 *1538:B1 0.000864693
31 *256:8 *390:42 0.000250656
32 *256:21 *266:155 0
33 *256:59 *1637:A 0.000125724
34 *256:59 *1668:B2 4.15914e-05
35 *256:59 *1671:A1 0.000420053
36 *256:59 *1758:A 0.000139893
37 *256:59 *278:123 0.000313215
38 *256:59 *359:16 0
39 *256:59 *385:100 0
40 *256:59 *385:102 0.000442451
41 *256:59 *390:42 0.000136951
42 *256:68 *1697:A 8.48678e-06
43 *256:68 *1697:C 5.46383e-06
44 *256:68 *257:10 0.000113926
45 *256:68 *278:123 0.000223662
46 *256:72 *1662:D_N 0
47 *256:72 *339:10 2.42082e-05
48 *256:72 *359:20 0.00014602
49 *256:72 *494:43 0
50 *1525:A1 *256:21 0.000363396
51 *1525:B1 *256:21 0.000177088
52 *1526:B1 *256:8 3.5298e-05
53 *1531:A1 *256:59 8.21712e-05
54 *1549:A1 *1549:B1 1.24368e-05
55 *1549:A1 *256:8 2.44266e-05
56 *1801:D *256:59 5.90666e-05
57 *1812:RESET_B *256:59 0.000151979
58 *157:23 *256:21 7.97574e-05
59 *161:52 *1582:A 9.67754e-05
60 *161:52 *1646:A 0.000224575
61 *163:111 *1646:A 6.3629e-05
62 *163:124 *256:59 0
63 *173:91 *1646:A 0.000360938
64 *173:91 *256:21 0
65 *250:6 *1549:B1 5.33005e-05
66 *250:6 *256:8 0.000160433
67 *251:16 *256:21 5.58941e-05
68 *252:12 *256:8 0.000227539
69 *252:12 *256:21 0.000139288
70 *252:25 *256:8 0.0001399
*RES
1 *1529:Y *256:4 9.3 
2 *256:4 *256:8 17.3929 
3 *256:8 *1549:B1 9.83571 
4 *256:8 *256:21 20.9643 
5 *256:21 *1582:A 10.2464 
6 *256:21 *1646:A 26.925 
7 *256:4 *256:59 29.25 
8 *256:59 *1530:A 9.3 
9 *256:59 *256:68 5.07143 
10 *256:68 *256:72 9.48214 
11 *256:72 *1703:A2 16.9607 
12 *256:72 *256:83 4.5 
13 *256:83 *1700:B 12.7286 
14 *256:83 *1627:A 9.3 
15 *256:68 *1697:D 9.3 
*END

*D_NET *257 0.0021589
*CONN
*I *1698:A2 I *D sky130_fd_sc_hd__o21ai_1
*I *1531:B1 I *D sky130_fd_sc_hd__a21oi_1
*I *1530:X O *D sky130_fd_sc_hd__and2_1
*CAP
1 *1698:A2 9.14329e-05
2 *1531:B1 0.000328818
3 *1530:X 0.000253237
4 *257:10 0.000673488
5 *1531:B1 *472:12 5.49995e-05
6 *1531:B1 *495:61 1.19813e-05
7 *1698:A2 *1697:B 5.54817e-06
8 *1698:A2 *358:14 0.000148383
9 *1698:A2 *359:20 8.49275e-05
10 *257:10 *1697:B 7.80183e-05
11 *257:10 *278:123 5.33005e-05
12 *257:10 *359:20 7.80183e-05
13 *1531:A1 *1531:B1 2.38501e-05
14 *1696:A2 *1531:B1 9.58689e-05
15 *163:111 *1531:B1 8.10737e-06
16 *163:118 *1531:B1 5.49995e-05
17 *256:68 *257:10 0.000113926
*RES
1 *1530:X *257:10 18.3357 
2 *257:10 *1531:B1 19.2821 
3 *257:10 *1698:A2 16.05 
*END

*D_NET *258 0.00512395
*CONN
*I *1532:B1 I *D sky130_fd_sc_hd__a2bb2o_1
*I *1531:Y O *D sky130_fd_sc_hd__a21oi_1
*CAP
1 *1532:B1 3.65997e-05
2 *1531:Y 0.00137229
3 *258:16 0.00140889
4 *1532:B1 *1526:A1 0.000102545
5 *258:16 *1435:A 0.000140933
6 *258:16 *1529:A 0.000126137
7 *258:16 *1671:A1 0.000790095
8 *258:16 *1758:A 4.41105e-05
9 *258:16 *259:98 0
10 *258:16 *360:74 4.19624e-06
11 *258:16 *385:100 9.87983e-06
12 *258:16 *385:102 8.63357e-05
13 *258:16 *472:12 7.88421e-05
14 *258:16 *472:18 7.17649e-05
15 *258:16 *493:14 9.71197e-05
16 *1531:A1 *258:16 0.000141941
17 *1594:A3 *1532:B1 0.000100831
18 *162:8 *258:16 0.000109325
19 *163:111 *258:16 0.000402105
*RES
1 *1531:Y *258:16 46.0857 
2 *258:16 *1532:B1 19.6393 
*END

*D_NET *259 0.0402582
*CONN
*I *1648:A2 I *D sky130_fd_sc_hd__a22o_1
*I *1656:A2 I *D sky130_fd_sc_hd__a22o_1
*I *1652:A2 I *D sky130_fd_sc_hd__a22o_1
*I *1650:A2 I *D sky130_fd_sc_hd__a22o_1
*I *1654:A2 I *D sky130_fd_sc_hd__a22o_1
*I *1604:C1 I *D sky130_fd_sc_hd__o221a_1
*I *1534:B1 I *D sky130_fd_sc_hd__o31a_1
*I *1560:B1 I *D sky130_fd_sc_hd__o31a_1
*I *1616:B1 I *D sky130_fd_sc_hd__o211ai_1
*I *1575:B1 I *D sky130_fd_sc_hd__o31a_1
*I *1533:X O *D sky130_fd_sc_hd__clkbuf_4
*CAP
1 *1648:A2 1.31768e-05
2 *1656:A2 0.000462418
3 *1652:A2 0.000112109
4 *1650:A2 6.29876e-05
5 *1654:A2 0.000226943
6 *1604:C1 2.23529e-05
7 *1534:B1 0.000124318
8 *1560:B1 0.000152481
9 *1616:B1 0.0023228
10 *1575:B1 3.95848e-05
11 *1533:X 0
12 *259:141 0.000614678
13 *259:135 0.00172592
14 *259:133 0.0020292
15 *259:129 0.00243756
16 *259:102 0.00239573
17 *259:98 0.00229133
18 *259:24 0.0026789
19 *259:18 0.000979141
20 *259:14 0.00103033
21 *259:4 0.00246049
22 *1534:B1 *1534:A1 4.24111e-05
23 *1534:B1 *390:113 8.33056e-05
24 *1560:B1 *1552:A 0
25 *1560:B1 *1571:B 5.3395e-05
26 *1575:B1 *381:52 0.000181796
27 *1616:B1 *1562:C_N 0
28 *1616:B1 *1616:A1 5.33005e-05
29 *1616:B1 *1616:C1 5.52238e-05
30 *1616:B1 *1679:A0 0.00109127
31 *1616:B1 *349:16 0.000434495
32 *1616:B1 *359:95 2.35126e-05
33 *1648:A2 *1648:B2 1.29777e-05
34 *1648:A2 *1740:A 3.63184e-06
35 *1650:A2 *1650:A1 0.000354066
36 *1650:A2 *1650:B1 0.000272338
37 *1650:A2 *314:52 8.17274e-05
38 *1652:A2 *1650:A1 5.66971e-05
39 *1652:A2 *387:29 0.000146991
40 *1654:A2 *1652:B2 0.000136166
41 *1654:A2 *1654:A1 0.000375222
42 *1654:A2 *314:65 0.0001201
43 *1654:A2 *314:73 1.578e-05
44 *1654:A2 *338:32 0.00012249
45 *1656:A2 *1649:A1 2.11419e-05
46 *1656:A2 *1656:B2 0
47 *1656:A2 *1657:A3 7.52112e-05
48 *1656:A2 *266:28 0.000273035
49 *1656:A2 *303:47 1.66776e-05
50 *1656:A2 *314:86 0.000155666
51 *1656:A2 *486:18 5.52238e-05
52 *1656:A2 *486:35 0
53 *1656:A2 *487:53 5.71472e-05
54 *259:14 *278:111 0.000111444
55 *259:14 *381:56 0.000771792
56 *259:18 *1561:A1 0.000315812
57 *259:18 *278:20 4.97967e-05
58 *259:18 *278:111 0.000616256
59 *259:18 *381:56 0.000348664
60 *259:24 *278:10 8.86842e-05
61 *259:24 *381:52 0.0012881
62 *259:98 *1529:A 8.09984e-05
63 *259:98 *1590:A1 6.98302e-05
64 *259:98 *1597:B1 0.000110554
65 *259:98 *1598:A1 1.81709e-05
66 *259:98 *1599:A1_N 3.92854e-05
67 *259:98 *1599:B1 0
68 *259:98 *1671:A1 0
69 *259:98 *263:100 0
70 *259:98 *263:106 0
71 *259:98 *278:111 0
72 *259:98 *278:113 0
73 *259:98 *278:123 0
74 *259:98 *307:21 0.000247778
75 *259:98 *308:10 3.88323e-05
76 *259:98 *308:18 4.34543e-05
77 *259:98 *309:10 0
78 *259:98 *360:74 9.87983e-06
79 *259:98 *408:26 0.000199922
80 *259:98 *472:18 5.66161e-05
81 *259:98 *472:54 0.000137511
82 *259:102 *1604:B1 3.47641e-06
83 *259:102 *385:102 0.000156896
84 *259:129 *1604:B1 0.000867541
85 *259:129 *1740:A 4.6484e-05
86 *259:129 *303:20 0.00149233
87 *259:129 *388:14 5.01102e-05
88 *259:129 *388:18 1.54874e-05
89 *259:129 *492:48 0
90 *259:133 *1640:A0 8.18064e-05
91 *259:133 *1648:B2 2.94347e-05
92 *259:133 *388:14 6.90866e-06
93 *259:135 *1640:A0 1.35465e-05
94 *259:135 *1640:A1 0.000186846
95 *259:135 *1799:CLK 0.000101011
96 *259:135 *359:32 0.000118413
97 *259:135 *477:12 0.000360687
98 *259:141 *1626:A1 4.45646e-05
99 *259:141 *1652:B2 9.15842e-06
100 *259:141 *314:48 5.15568e-05
101 *259:141 *338:32 0.000134981
102 *1440:A *259:129 1.04707e-05
103 *1461:A *259:129 5.31158e-05
104 *1464:A1 *259:129 9.85571e-05
105 *1479:A1 *259:98 0.000173097
106 *1479:B1 *259:98 0.000118349
107 *1510:A1 *1604:C1 5.71472e-05
108 *1533:A *259:14 5.33005e-05
109 *1534:A3 *1534:B1 2.84026e-05
110 *1560:A3 *1560:B1 0.000152127
111 *1560:A3 *259:24 0.000196273
112 *1562:A *1616:B1 1.32511e-05
113 *1562:B *1616:B1 2.06178e-05
114 *1574:A2 *1616:B1 5.12468e-05
115 *1592:A1 *259:98 7.46259e-05
116 *1592:A2 *259:98 6.93626e-06
117 *1597:A2 *259:98 9.61354e-05
118 *1616:A2 *1616:B1 0.000110627
119 *1696:A1 *259:129 0.000450386
120 *1792:D *1656:A2 3.55636e-05
121 *1793:RESET_B *1654:A2 0.000146474
122 *1799:D *259:135 1.16543e-05
123 *1800:D *259:135 9.73768e-05
124 *1817:D *1560:B1 1.35554e-05
125 *153:41 *1616:B1 0.00016107
126 *153:43 *1575:B1 5.33005e-05
127 *153:63 *1575:B1 0.000128496
128 *153:63 *259:24 0.000186669
129 *153:76 *259:24 0.00107005
130 *153:95 *259:24 2.14658e-05
131 *162:89 *259:14 7.74068e-05
132 *162:95 *259:14 0.000333061
133 *162:95 *259:18 0.00033829
134 *163:61 *1652:A2 1.84776e-05
135 *163:134 *259:98 0
136 *166:71 *259:129 0.000234384
137 *166:73 *259:129 0.000162118
138 *166:104 *259:129 0.000136156
139 *193:16 *259:98 1.97381e-05
140 *193:16 *259:102 0.000258672
141 *193:29 *259:98 2.14658e-05
142 *258:16 *259:98 0
*RES
1 *1533:X *259:4 9.3 
2 *259:4 *259:14 19.3214 
3 *259:14 *259:18 19.8214 
4 *259:18 *259:24 19.8036 
5 *259:24 *1575:B1 11.0679 
6 *259:24 *1616:B1 42.1798 
7 *259:18 *1560:B1 17.2643 
8 *259:14 *1534:B1 21.0857 
9 *259:4 *259:98 48.6786 
10 *259:98 *259:102 11 
11 *259:102 *1604:C1 14.3357 
12 *259:102 *259:129 36.6151 
13 *259:129 *259:133 3.73214 
14 *259:133 *259:135 17.375 
15 *259:135 *259:141 9.44643 
16 *259:141 *1654:A2 20.9071 
17 *259:141 *1650:A2 17.2107 
18 *259:135 *1652:A2 20.7821 
19 *259:133 *1656:A2 27.7643 
20 *259:129 *1648:A2 9.72857 
*END

*D_NET *260 0.00119101
*CONN
*I *1542:A1_N I *D sky130_fd_sc_hd__o2bb2ai_1
*I *1534:X O *D sky130_fd_sc_hd__o31a_1
*CAP
1 *1542:A1_N 0.000273188
2 *1534:X 0.000273188
3 *1542:A1_N *1542:A2_N 0.00014693
4 *1542:A1_N *1542:B1 0.000143633
5 *1542:A1_N *266:155 0.000354071
6 *1542:A1_N *380:103 0
*RES
1 *1534:X *1542:A1_N 33.7964 
*END

*D_NET *261 0.00157177
*CONN
*I *1536:B1 I *D sky130_fd_sc_hd__a21o_1
*I *1538:A3 I *D sky130_fd_sc_hd__a31oi_1
*I *1535:X O *D sky130_fd_sc_hd__xor2_1
*CAP
1 *1536:B1 3.46933e-05
2 *1538:A3 8.72692e-05
3 *1535:X 0.000356831
4 *261:10 0.000478794
5 *1538:A3 *266:155 0.000169804
6 *1538:A3 *483:32 1.01417e-05
7 *261:10 *1535:A 3.40979e-05
8 *1526:A2 *261:10 5.33005e-05
9 *1526:B2 *1536:B1 3.99614e-06
10 *1526:B2 *261:10 1.73124e-05
11 *1536:A1 *1538:A3 0.000146066
12 *1536:A1 *261:10 2.89114e-05
13 *161:68 *261:10 4.20171e-05
14 *250:6 *1538:A3 5.33005e-05
15 *256:8 *1538:A3 5.52302e-05
*RES
1 *1535:X *261:10 14.0857 
2 *261:10 *1538:A3 21.0857 
3 *261:10 *1536:B1 10.0321 
*END

*D_NET *262 6.37568e-05
*CONN
*I *1539:A I *D sky130_fd_sc_hd__nand2_1
*I *1536:X O *D sky130_fd_sc_hd__a21o_1
*CAP
1 *1539:A 3.18784e-05
2 *1536:X 3.18784e-05
*RES
1 *1536:X *1539:A 19.1357 
*END

*D_NET *263 0.0272869
*CONN
*I *1603:B1 I *D sky130_fd_sc_hd__a41o_1
*I *1599:B2 I *D sky130_fd_sc_hd__a2bb2o_1
*I *1598:B1 I *D sky130_fd_sc_hd__a31o_1
*I *1591:B1 I *D sky130_fd_sc_hd__a41oi_1
*I *1538:B1 I *D sky130_fd_sc_hd__a31oi_1
*I *1586:A2 I *D sky130_fd_sc_hd__a22oi_2
*I *1580:B1 I *D sky130_fd_sc_hd__a31o_1
*I *1585:B1 I *D sky130_fd_sc_hd__a21oi_1
*I *1645:A1_N I *D sky130_fd_sc_hd__a2bb2o_1
*I *1537:Y O *D sky130_fd_sc_hd__nor2_4
*CAP
1 *1603:B1 6.12728e-05
2 *1599:B2 0
3 *1598:B1 0.00034441
4 *1591:B1 1.69531e-05
5 *1538:B1 0.000742455
6 *1586:A2 2.06112e-05
7 *1580:B1 0.000364204
8 *1585:B1 0.000662517
9 *1645:A1_N 0.000734758
10 *1537:Y 0
11 *263:130 0.000503799
12 *263:106 0.00117374
13 *263:100 0.00103616
14 *263:92 0.00181572
15 *263:47 0.00118051
16 *263:43 0.0011197
17 *263:12 0.00211281
18 *263:4 0.00172476
19 *1538:B1 *1468:B1 0
20 *1538:B1 *1668:A1 0.000128305
21 *1538:B1 *278:113 0.000758484
22 *1538:B1 *278:123 0.000332695
23 *1538:B1 *312:10 0.000145253
24 *1538:B1 *390:42 0.000225616
25 *1538:B1 *483:32 8.86353e-05
26 *1580:B1 *1579:A1 0.00012342
27 *1580:B1 *1581:B1 0.000236751
28 *1580:B1 *303:133 8.50412e-05
29 *1580:B1 *306:12 3.34366e-05
30 *1585:B1 *1586:A1 0.000145789
31 *1585:B1 *1586:B1 2.84026e-05
32 *1585:B1 *1586:B2 5.52238e-05
33 *1585:B1 *1849:A 1.92789e-05
34 *1585:B1 *383:25 0.000108209
35 *1585:B1 *389:36 2.89016e-05
36 *1585:B1 *473:8 7.49387e-06
37 *1586:A2 *1586:A1 0
38 *1586:A2 *491:43 0
39 *1591:B1 *400:34 5.33005e-05
40 *1598:B1 *1598:A1 0.000400897
41 *1598:B1 *1599:B1 9.25014e-06
42 *1598:B1 *307:21 2.82057e-05
43 *1603:B1 *1603:A4 2.14757e-05
44 *1645:A1_N *349:16 0.000106582
45 *1645:A1_N *383:48 2.26973e-05
46 *263:12 *314:29 0
47 *263:12 *486:70 0
48 *263:43 *1499:B 0.00026695
49 *263:43 *1647:B1 2.06178e-05
50 *263:43 *1790:CLK 4.62401e-05
51 *263:43 *314:29 4.43029e-05
52 *263:43 *339:61 0.000181041
53 *263:43 *468:53 0.00012249
54 *263:43 *473:8 3.54589e-05
55 *263:43 *491:43 5.04841e-06
56 *263:43 *491:61 0
57 *263:47 *1586:A1 3.69047e-06
58 *263:47 *473:8 3.67949e-05
59 *263:92 *1427:A 0.000264762
60 *263:92 *1427:B 3.18747e-05
61 *263:92 *1504:A2 2.36643e-05
62 *263:92 *1603:A4 6.42095e-05
63 *263:92 *1608:C 9.50968e-06
64 *263:100 *1597:B1 0.000199698
65 *263:100 *1599:A1_N 5.7661e-06
66 *263:100 *317:18 0.000177489
67 *263:106 *1468:B1 0
68 *263:106 *1597:B1 5.26277e-05
69 *263:106 *309:10 5.74447e-05
70 *263:106 *317:18 8.25843e-06
71 *263:130 *1598:A2 9.41642e-05
72 *263:130 *1599:A1_N 3.18676e-05
73 *263:130 *1599:A2_N 0.000135028
74 *263:130 *317:18 8.25843e-06
75 *1462:A1 *263:92 0.00023389
76 *1477:A1 *263:106 1.69115e-05
77 *1477:B1 *263:106 0
78 *1482:A *263:43 6.49199e-05
79 *1504:A1 *263:92 1.89868e-05
80 *1504:A3 *263:92 0.000397145
81 *1511:A *263:106 0.000300014
82 *1511:B *263:100 0.000235015
83 *1511:C *263:100 0
84 *1526:B1 *1538:B1 0.000394502
85 *1537:A *263:92 5.95827e-05
86 *1537:B *263:92 5.20669e-05
87 *1581:A2 *1580:B1 0
88 *1592:B2 *1538:B1 7.70204e-05
89 *1601:B1 *263:100 0.000115018
90 *1603:A2 *1603:B1 5.52302e-05
91 *1603:A3 *1603:B1 0.00014183
92 *1603:A3 *263:100 0.000147121
93 *1608:A *263:92 5.33005e-05
94 *1647:B2 *263:43 3.03567e-05
95 *149:70 *1580:B1 0.000640738
96 *152:12 *263:92 0.000135923
97 *152:14 *263:92 4.87953e-05
98 *153:27 *263:43 0.000709045
99 *153:41 *263:43 0.000319029
100 *154:6 *263:92 0.000105163
101 *154:19 *263:92 0.000195376
102 *162:22 *1538:B1 0.0002845
103 *166:10 *263:92 0.000826432
104 *166:69 *263:92 0.000593352
105 *172:87 *263:92 5.39653e-06
106 *193:16 *263:100 0
107 *193:29 *1598:B1 0
108 *197:21 *1591:B1 5.33005e-05
109 *203:10 *263:106 0.000196077
110 *203:19 *263:106 4.80729e-05
111 *203:32 *1538:B1 2.49484e-05
112 *203:32 *263:106 0.000137224
113 *207:10 *263:43 8.26834e-05
114 *228:56 *263:100 0.000315953
115 *231:12 *263:92 0.000367516
116 *234:19 *263:100 8.68118e-05
117 *236:25 *263:100 7.80714e-06
118 *254:82 *1580:B1 0.00011022
119 *256:8 *1538:B1 0.000864693
120 *259:98 *263:100 0
121 *259:98 *263:106 0
*RES
1 *1537:Y *263:4 9.3 
2 *263:4 *263:12 9.18596 
3 *263:12 *1645:A1_N 18.9751 
4 *263:12 *263:43 30.1154 
5 *263:43 *263:47 2.19643 
6 *263:47 *1585:B1 28.5857 
7 *263:47 *1580:B1 28.7464 
8 *263:43 *1586:A2 9.72857 
9 *263:4 *263:92 32.5536 
10 *263:92 *263:100 22 
11 *263:100 *263:106 14.6786 
12 *263:106 *1538:B1 39.8 
13 *263:106 *1591:B1 14.3357 
14 *263:100 *263:130 3 
15 *263:130 *1598:B1 23.7821 
16 *263:130 *1599:B2 9.3 
17 *263:92 *1603:B1 11.0679 
*END

*D_NET *264 0.000977945
*CONN
*I *1539:B I *D sky130_fd_sc_hd__nand2_1
*I *1538:Y O *D sky130_fd_sc_hd__a31oi_1
*CAP
1 *1539:B 0.000352387
2 *1538:Y 0.000352387
3 *1539:B *266:155 0
4 *1539:B *483:32 5.33005e-05
5 *1526:B1 *1539:B 1.98839e-05
6 *250:6 *1539:B 0.000141965
7 *251:16 *1539:B 5.80217e-05
*RES
1 *1538:Y *1539:B 32.9571 
*END

*D_NET *265 0.00204822
*CONN
*I *1542:A2_N I *D sky130_fd_sc_hd__o2bb2ai_1
*I *1539:Y O *D sky130_fd_sc_hd__nand2_1
*CAP
1 *1542:A2_N 0.000553528
2 *1539:Y 0.000553528
3 *1542:A2_N *1542:B1 0
4 *1542:A2_N *1548:B1 0
5 *1542:A2_N *460:10 0
6 *1542:A1_N *1542:A2_N 0.00014693
7 *162:95 *1542:A2_N 7.58841e-05
8 *162:112 *1542:A2_N 8.72684e-05
9 *251:16 *1542:A2_N 0.000631082
*RES
1 *1539:Y *1542:A2_N 38.6 
*END

*D_NET *266 0.0353609
*CONN
*I *1541:B I *D sky130_fd_sc_hd__or2_1
*I *1551:B I *D sky130_fd_sc_hd__or3_1
*I *1571:B I *D sky130_fd_sc_hd__or3b_1
*I *1661:A3 I *D sky130_fd_sc_hd__a31o_1
*I *1659:A3 I *D sky130_fd_sc_hd__a31o_1
*I *1649:A3 I *D sky130_fd_sc_hd__a31o_1
*I *1653:A3 I *D sky130_fd_sc_hd__a31o_1
*I *1655:A3 I *D sky130_fd_sc_hd__a31o_1
*I *1651:A3 I *D sky130_fd_sc_hd__a31o_1
*I *1657:A3 I *D sky130_fd_sc_hd__a31o_1
*I *1540:X O *D sky130_fd_sc_hd__clkbuf_4
*CAP
1 *1541:B 2.37855e-05
2 *1551:B 1.99409e-05
3 *1571:B 0.000677213
4 *1661:A3 1.4477e-05
5 *1659:A3 0.00238623
6 *1649:A3 0
7 *1653:A3 0
8 *1655:A3 0.000135974
9 *1651:A3 0.000366393
10 *1657:A3 0.000118252
11 *1540:X 4.03897e-05
12 *266:161 0.00101929
13 *266:155 0.00141433
14 *266:123 0.00362777
15 *266:119 0.00297571
16 *266:79 0.000792393
17 *266:67 0.0014571
18 *266:51 0.0012398
19 *266:28 0.00278004
20 *266:6 0.00330968
21 *1571:B *1514:A 4.97967e-05
22 *1571:B *1572:A 4.47327e-05
23 *1571:B *1572:B 2.46282e-05
24 *1571:B *1841:A 0.000100074
25 *1571:B *463:23 0.00120317
26 *1571:B *463:29 0.000201468
27 *1651:A3 *1651:B1 0.000232399
28 *1651:A3 *1793:CLK 9.31893e-05
29 *1651:A3 *303:73 5.89831e-05
30 *1651:A3 *394:12 1.78447e-05
31 *1655:A3 *1651:B1 0
32 *1655:A3 *394:12 4.64626e-05
33 *1657:A3 *1648:B1 1.04707e-05
34 *1657:A3 *1649:B1 9.65834e-05
35 *1657:A3 *1657:A2 1.73088e-05
36 *1657:A3 *303:63 0
37 *1657:A3 *314:86 6.30931e-05
38 *1659:A3 *1647:C1 0
39 *1659:A3 *1661:B1 0.00032956
40 *1659:A3 *1824:A 0
41 *1659:A3 *303:145 0.000160924
42 *1659:A3 *385:45 0.000162431
43 *1661:A3 *1661:B1 2.29917e-05
44 *266:28 *1640:S 0.000361014
45 *266:28 *1648:B1 0.000371751
46 *266:28 *303:20 0
47 *266:28 *386:20 0
48 *266:28 *388:14 3.61807e-05
49 *266:28 *480:41 1.48677e-06
50 *266:28 *481:47 0
51 *266:28 *481:59 0
52 *266:28 *486:35 0
53 *266:28 *492:66 0
54 *266:51 *1649:B1 5.33005e-05
55 *266:51 *303:63 2.44318e-05
56 *266:51 *338:32 0.000176312
57 *266:67 *1687:A1 0
58 *266:67 *1687:S 0
59 *266:67 *1720:A 0.0001179
60 *266:67 *1777:CLK 0.000408048
61 *266:67 *1792:CLK 0
62 *266:67 *1834:A 0.000300086
63 *266:67 *1888:A 9.25014e-06
64 *266:67 *303:63 0.000306936
65 *266:67 *314:73 1.03968e-05
66 *266:67 *338:32 0.000571269
67 *266:67 *359:32 0
68 *266:67 *382:84 0.000200749
69 *266:67 *383:86 0
70 *266:79 *1654:B2 8.69323e-05
71 *266:79 *303:73 0.000406815
72 *266:79 *394:12 1.0562e-05
73 *266:79 *487:43 0.00014285
74 *266:119 *303:20 0
75 *266:119 *479:20 0.000141481
76 *266:119 *482:50 0.000265385
77 *266:119 *482:91 0.00023304
78 *266:119 *482:104 7.0048e-05
79 *266:123 *1647:C1 0
80 *266:123 *1661:B1 0.00011529
81 *266:123 *386:50 0
82 *266:155 *1534:A1 7.48927e-06
83 *266:155 *1535:A 0
84 *266:155 *381:52 0.000217601
85 *266:155 *390:14 0.00036506
86 *266:155 *479:20 0.000101431
87 *266:155 *483:32 4.15477e-05
88 *266:161 *1519:A 9.58632e-05
89 *1444:A2 *266:28 0.00012852
90 *1449:A1 *266:119 3.18676e-05
91 *1462:A1 *266:28 0
92 *1464:B1 *266:28 2.79092e-05
93 *1465:B2 *266:28 0
94 *1472:B2 *266:119 8.00806e-05
95 *1534:A2 *266:155 1.80261e-05
96 *1536:A1 *266:155 2.82057e-05
97 *1538:A3 *266:155 0.000169804
98 *1539:B *266:155 0
99 *1541:A *266:155 1.58163e-05
100 *1542:A1_N *266:155 0.000354071
101 *1551:A *1571:B 9.84729e-05
102 *1551:A *266:161 4.17702e-05
103 *1551:C *266:161 7.02212e-05
104 *1560:A2 *1571:B 2.97489e-05
105 *1560:A3 *1571:B 9.45048e-06
106 *1560:B1 *1571:B 5.3395e-05
107 *1571:A *1571:B 6.05161e-06
108 *1646:A *266:119 0.000185229
109 *1646:A *266:155 0.000174001
110 *1656:A2 *1657:A3 7.52112e-05
111 *1656:A2 *266:28 0.000273035
112 *1792:D *1657:A3 5.52238e-05
113 *1792:D *266:51 2.07382e-05
114 *1793:D *1651:A3 4.24297e-05
115 *1793:D *1655:A3 5.13561e-05
116 *1793:RESET_B *266:79 4.70821e-05
117 *1816:D *1571:B 8.6595e-06
118 *148:16 *266:28 0.00030394
119 *149:70 *1659:A3 8.57736e-06
120 *149:104 *1571:B 1.4487e-05
121 *149:126 *266:155 0.000164319
122 *161:66 *266:155 0.000767453
123 *161:86 *266:155 6.8646e-06
124 *162:36 *266:123 0
125 *162:126 *1571:B 0.000867853
126 *163:49 *1659:A3 0
127 *170:31 *266:28 1.46717e-05
128 *170:50 *266:28 0
129 *173:91 *266:119 0.000194825
130 *173:91 *266:155 0.000122788
131 *174:10 *266:28 2.69614e-05
132 *193:71 *266:119 1.77672e-05
133 *238:8 *266:6 1.60719e-05
134 *238:8 *266:119 8.12542e-05
135 *238:10 *1661:A3 4.5258e-05
136 *246:8 *266:161 2.60673e-05
137 *251:16 *266:155 0
138 *252:12 *266:155 0
139 *256:21 *266:155 0
*RES
1 *1540:X *266:6 9.83571 
2 *266:6 *266:28 41.1433 
3 *266:28 *1657:A3 16.7464 
4 *266:28 *266:51 6.82143 
5 *266:51 *266:67 40.2857 
6 *266:67 *266:79 12.1518 
7 *266:79 *1651:A3 21.3982 
8 *266:79 *1655:A3 16.4339 
9 *266:67 *1653:A3 9.3 
10 *266:51 *1649:A3 9.3 
11 *266:6 *266:119 19.7232 
12 *266:119 *266:123 5.76313 
13 *266:123 *1659:A3 23.3189 
14 *266:123 *1661:A3 17.7904 
15 *266:119 *266:155 32.7054 
16 *266:155 *266:161 6.01786 
17 *266:161 *1571:B 29.5679 
18 *266:161 *1551:B 9.72857 
19 *266:155 *1541:B 9.72857 
*END

*D_NET *267 0.000584491
*CONN
*I *1542:B1 I *D sky130_fd_sc_hd__o2bb2ai_1
*I *1541:X O *D sky130_fd_sc_hd__or2_1
*CAP
1 *1542:B1 0.000220429
2 *1541:X 0.000220429
3 *1542:A1_N *1542:B1 0.000143633
4 *1542:A2_N *1542:B1 0
*RES
1 *1541:X *1542:B1 30.9036 
*END

*D_NET *268 0.00109155
*CONN
*I *1544:B1_N I *D sky130_fd_sc_hd__o21bai_2
*I *1543:Y O *D sky130_fd_sc_hd__nand2_1
*CAP
1 *1544:B1_N 0.000352799
2 *1543:Y 0.000352799
3 *1544:B1_N *269:12 5.33005e-05
4 *1520:A1 *1544:B1_N 5.71472e-05
5 *1520:A2 *1544:B1_N 1.74795e-05
6 *1520:B1 *1544:B1_N 2.14658e-05
7 *1543:B *1544:B1_N 9.90431e-05
8 *165:29 *1544:B1_N 0.000137515
*RES
1 *1543:Y *1544:B1_N 24.9036 
*END

*D_NET *269 0.00320053
*CONN
*I *1547:C1 I *D sky130_fd_sc_hd__o211ai_1
*I *1545:A2 I *D sky130_fd_sc_hd__a21oi_1
*I *1559:B1 I *D sky130_fd_sc_hd__a22o_1
*I *1544:Y O *D sky130_fd_sc_hd__o21bai_2
*CAP
1 *1547:C1 0.00012916
2 *1545:A2 0
3 *1559:B1 0.000157177
4 *1544:Y 0.000144546
5 *269:31 0.00050268
6 *269:12 0.000675243
7 *1547:C1 *1550:A1 0.000185643
8 *269:12 *1742:A 1.90936e-05
9 *269:12 *389:157 0
10 *269:31 *1550:B1_N 0.000204127
11 *1522:A *269:31 0.00014784
12 *1523:A1 *269:31 1.21289e-05
13 *1523:A2 *269:12 7.56759e-05
14 *1523:A2 *269:31 8.07313e-05
15 *1523:B1_N *269:31 1.00073e-05
16 *1544:B1_N *269:12 5.33005e-05
17 *1545:A1 *269:31 1.01241e-05
18 *1545:B1 *1547:C1 2.99316e-05
19 *1549:A3 *269:12 6.27272e-06
20 *1574:A1 *1559:B1 6.03333e-05
21 *165:10 *1559:B1 1.65169e-05
22 *165:10 *269:12 5.97401e-05
23 *165:29 *269:12 5.52238e-05
24 *245:16 *1547:C1 0.000108082
25 *246:16 *269:31 1.31516e-05
26 *250:6 *269:31 0.000357952
27 *254:99 *1559:B1 7.08862e-05
28 *254:99 *269:12 1.49645e-05
*RES
1 *1544:Y *269:12 21.6929 
2 *269:12 *1559:B1 12.3357 
3 *269:12 *269:31 17.5357 
4 *269:31 *1545:A2 9.3 
5 *269:31 *1547:C1 12.7464 
*END

*D_NET *270 0.000891997
*CONN
*I *1550:A1 I *D sky130_fd_sc_hd__o21bai_1
*I *1545:Y O *D sky130_fd_sc_hd__a21oi_1
*CAP
1 *1550:A1 0.000241657
2 *1545:Y 0.000241657
3 *1545:A1 *1550:A1 2.46387e-05
4 *1545:B1 *1550:A1 8.43535e-06
5 *1547:C1 *1550:A1 0.000185643
6 *245:12 *1550:A1 0.000125731
7 *246:10 *1550:A1 6.42338e-05
*RES
1 *1545:Y *1550:A1 31.8054 
*END

*D_NET *271 0.00170097
*CONN
*I *1547:A2 I *D sky130_fd_sc_hd__o211ai_1
*I *1546:X O *D sky130_fd_sc_hd__a31o_1
*CAP
1 *1547:A2 0.000480179
2 *1546:X 0.000480179
3 *1547:A2 *1521:A1 1.23973e-05
4 *1547:A2 *460:10 0
5 *1521:A2 *1547:A2 7.83659e-05
6 *1521:A3 *1547:A2 8.00806e-05
7 *151:89 *1547:A2 9.60875e-05
8 *246:16 *1547:A2 0.000473684
9 *248:17 *1547:A2 0
*RES
1 *1546:X *1547:A2 36.8679 
*END

*D_NET *272 0.000433074
*CONN
*I *1548:B1 I *D sky130_fd_sc_hd__o21ai_1
*I *1547:Y O *D sky130_fd_sc_hd__o211ai_1
*CAP
1 *1548:B1 0.0001433
2 *1547:Y 0.0001433
3 *1548:B1 *460:10 0.000146474
4 *1542:A2_N *1548:B1 0
*RES
1 *1547:Y *1548:B1 30.0821 
*END

*D_NET *273 0.000569143
*CONN
*I *1550:A2 I *D sky130_fd_sc_hd__o21bai_1
*I *1548:Y O *D sky130_fd_sc_hd__o21ai_1
*CAP
1 *1550:A2 9.60992e-05
2 *1548:Y 9.60992e-05
3 *1550:A2 *381:52 6.42095e-05
4 *1548:A1 *1550:A2 9.71197e-05
5 *153:95 *1550:A2 0.000183726
6 *153:104 *1550:A2 3.1889e-05
*RES
1 *1548:Y *1550:A2 21.6357 
*END

*D_NET *274 0.0015637
*CONN
*I *1550:B1_N I *D sky130_fd_sc_hd__o21bai_1
*I *1549:X O *D sky130_fd_sc_hd__a31o_1
*CAP
1 *1550:B1_N 0.000475288
2 *1549:X 0.000475288
3 *1550:B1_N *278:10 0
4 *1545:A1 *1550:B1_N 0.000150618
5 *246:10 *1550:B1_N 5.66657e-05
6 *250:6 *1550:B1_N 0.000201714
7 *269:31 *1550:B1_N 0.000204127
*RES
1 *1549:X *1550:B1_N 35.9036 
*END

*D_NET *275 0.00130433
*CONN
*I *1552:A I *D sky130_fd_sc_hd__nand2_1
*I *1550:Y O *D sky130_fd_sc_hd__o21bai_1
*CAP
1 *1552:A 0.000443038
2 *1550:Y 0.000443038
3 *1552:A *1519:A 0
4 *1552:A *1552:B 3.79254e-05
5 *1552:A *1561:A1 3.9733e-05
6 *1552:A *1764:A 4.6025e-06
7 *1552:A *1841:A 0
8 *1552:A *278:10 0
9 *1551:A *1552:A 4.19624e-06
10 *1551:C *1552:A 2.1069e-05
11 *1560:B1 *1552:A 0
12 *1818:D *1552:A 7.80824e-05
13 *153:95 *1552:A 9.90367e-05
14 *245:12 *1552:A 0
15 *246:10 *1552:A 0.000133613
*RES
1 *1550:Y *1552:A 35.35 
*END

*D_NET *276 0.000744501
*CONN
*I *1552:B I *D sky130_fd_sc_hd__nand2_1
*I *1551:X O *D sky130_fd_sc_hd__or3_1
*CAP
1 *1552:B 0.000144445
2 *1551:X 0.000144445
3 *1552:B *1519:A 1.30833e-05
4 *1552:B *380:69 5.49995e-05
5 *1514:B *1552:B 0.00022239
6 *1552:A *1552:B 3.79254e-05
7 *1817:RESET_B *1552:B 8.74791e-05
8 *245:12 *1552:B 3.9733e-05
*RES
1 *1551:X *1552:B 31.85 
*END

*D_NET *277 0.00255055
*CONN
*I *1596:A I *D sky130_fd_sc_hd__clkbuf_4
*I *1658:B1 I *D sky130_fd_sc_hd__a22o_1
*I *1660:B1 I *D sky130_fd_sc_hd__a22o_1
*I *1554:A I *D sky130_fd_sc_hd__clkbuf_4
*I *1553:Y O *D sky130_fd_sc_hd__nor2_1
*CAP
1 *1596:A 0.000128677
2 *1658:B1 0.00012478
3 *1660:B1 3.8986e-05
4 *1554:A 0
5 *1553:Y 8.58066e-05
6 *277:17 0.000403552
7 *277:6 0.000454269
8 *1596:A *278:10 0
9 *1596:A *383:177 0
10 *1658:B1 *1661:B1 4.00349e-05
11 *1658:B1 *486:70 0.000183815
12 *1660:B1 *1660:A1 3.70808e-05
13 *1660:B1 *1661:B1 5.49489e-05
14 *277:6 *1553:B 2.89016e-05
15 *277:17 *486:70 0.00016962
16 *1553:A *277:6 0.000269428
17 *1553:A *277:17 0.000136951
18 *1660:B2 *277:17 0.000147131
19 *163:22 *277:17 0
20 *238:10 *1596:A 0.000246572
*RES
1 *1553:Y *277:6 11.8893 
2 *277:6 *1554:A 9.3 
3 *277:6 *277:17 9.33929 
4 *277:17 *1660:B1 14.7643 
5 *277:17 *1658:B1 16.3536 
6 *277:6 *1596:A 21.4607 
*END

*D_NET *278 0.0317877
*CONN
*I *1706:B1 I *D sky130_fd_sc_hd__a21oi_1
*I *1595:A2 I *D sky130_fd_sc_hd__a22o_1
*I *1705:A2 I *D sky130_fd_sc_hd__a21bo_1
*I *1696:B1 I *D sky130_fd_sc_hd__a22o_1
*I *1605:A2 I *D sky130_fd_sc_hd__a21o_1
*I *1561:A2 I *D sky130_fd_sc_hd__a22o_1
*I *1583:A2_N I *D sky130_fd_sc_hd__o2bb2ai_1
*I *1587:B1 I *D sky130_fd_sc_hd__a2bb2o_1
*I *1617:A2 I *D sky130_fd_sc_hd__a21bo_1
*I *1576:A2 I *D sky130_fd_sc_hd__a22o_1
*I *1554:X O *D sky130_fd_sc_hd__clkbuf_4
*CAP
1 *1706:B1 1.40568e-05
2 *1595:A2 2.04426e-05
3 *1705:A2 6.42491e-05
4 *1696:B1 0
5 *1605:A2 0.000184461
6 *1561:A2 0
7 *1583:A2_N 0
8 *1587:B1 0
9 *1617:A2 0.000625434
10 *1576:A2 0
11 *1554:X 0.00113623
12 *278:125 0.000386053
13 *278:123 0.00125807
14 *278:113 0.00165214
15 *278:111 0.00166465
16 *278:71 0.00122029
17 *278:61 0.00158258
18 *278:42 0.0022636
19 *278:20 0.00147401
20 *278:10 0.00234551
21 *1595:A2 *1595:A1 2.59355e-05
22 *1595:A2 *1812:CLK 5.33005e-05
23 *1605:A2 *1605:A1 8.00806e-05
24 *1605:A2 *1605:B1 0.000128425
25 *1605:A2 *321:23 6.28547e-05
26 *1605:A2 *359:20 9.3977e-05
27 *1617:A2 *1617:A1 9.41642e-05
28 *1617:A2 *1754:A 5.50052e-05
29 *1617:A2 *1848:A 0.000437212
30 *1617:A2 *1857:A 0.000232735
31 *1617:A2 *383:48 0
32 *1617:A2 *385:51 8.08342e-05
33 *1617:A2 *481:37 0.00012546
34 *1705:A2 *1705:A1 2.89114e-05
35 *1705:A2 *1705:B1_N 0.000183726
36 *1706:B1 *1771:CLK 2.89016e-05
37 *278:10 *1561:B1 0
38 *278:10 *1661:B1 3.92812e-05
39 *278:10 *1825:A 1.88175e-05
40 *278:10 *383:177 0.000449725
41 *278:20 *1561:A1 0.000144305
42 *278:42 *1561:B1 0.000139511
43 *278:42 *1576:A1 7.53583e-05
44 *278:42 *1576:B1 8.24501e-05
45 *278:42 *1576:B2 0
46 *278:42 *288:25 7.6644e-05
47 *278:42 *381:52 0.00129122
48 *278:61 *1576:B1 5.33005e-05
49 *278:61 *1659:A1 0
50 *278:61 *1681:A0 0.000640976
51 *278:61 *391:18 0.000114759
52 *278:61 *462:23 6.9253e-05
53 *278:61 *474:21 0.000172536
54 *278:61 *474:57 8.40933e-05
55 *278:71 *1583:B2 0
56 *278:71 *1659:A1 0
57 *278:71 *1667:A2 5.71472e-05
58 *278:71 *1848:A 1.02504e-05
59 *278:71 *303:145 5.41794e-05
60 *278:71 *306:12 0.00018077
61 *278:71 *383:31 2.1527e-05
62 *278:71 *385:45 0.000235295
63 *278:71 *385:51 0.000203709
64 *278:71 *391:18 0.00110237
65 *278:111 *381:56 0.00111076
66 *278:111 *466:14 0.000224582
67 *278:111 *466:18 0.000521645
68 *278:113 *408:26 0
69 *278:123 *1593:B 2.12005e-05
70 *278:123 *312:10 0.000440865
71 *278:123 *359:20 0.000350698
72 *278:123 *408:26 0
73 *278:123 *472:24 0.000358246
74 *278:125 *321:23 6.57499e-06
75 *278:125 *359:20 0.000215335
76 *1437:C1 *1706:B1 5.52238e-05
77 *1517:A1 *278:10 0
78 *1520:A1 *278:10 0.000106345
79 *1522:B *278:10 0.000180937
80 *1523:A1 *278:10 4.33437e-05
81 *1538:B1 *278:113 0.000758484
82 *1538:B1 *278:123 0.000332695
83 *1545:A1 *278:10 0
84 *1550:B1_N *278:10 0
85 *1552:A *278:10 0
86 *1557:A2 *278:10 0.000147833
87 *1560:A3 *278:42 0
88 *1574:A1 *278:42 0
89 *1596:A *278:10 0
90 *1696:A1 *1605:A2 9.54798e-06
91 *1696:A1 *278:125 2.06112e-05
92 *1696:A2 *278:123 0.000975471
93 *1696:A2 *278:125 0.000608528
94 *149:70 *278:42 3.92854e-05
95 *159:41 *278:10 5.30491e-05
96 *162:22 *278:113 4.89924e-05
97 *162:36 *278:10 2.30558e-05
98 *162:89 *278:111 5.5565e-05
99 *162:89 *278:113 6.95205e-05
100 *163:134 *278:111 8.00806e-05
101 *238:10 *278:10 0
102 *244:10 *278:10 0
103 *246:10 *278:10 0
104 *247:19 *278:10 4.90803e-05
105 *254:82 *278:61 0.000503037
106 *256:59 *278:123 0.000313215
107 *256:68 *278:123 0.000223662
108 *257:10 *278:123 5.33005e-05
109 *259:14 *278:111 0.000111444
110 *259:18 *278:20 4.97967e-05
111 *259:18 *278:111 0.000616256
112 *259:24 *278:10 8.86842e-05
113 *259:98 *278:111 0
114 *259:98 *278:113 0
115 *259:98 *278:123 0
*RES
1 *1554:X *278:10 42.1036 
2 *278:10 *278:20 4.10714 
3 *278:20 *278:42 38.5179 
4 *278:42 *1576:A2 9.3 
5 *278:42 *278:61 32.3393 
6 *278:61 *278:71 26.3036 
7 *278:71 *1617:A2 28.4964 
8 *278:71 *1587:B1 13.8 
9 *278:61 *1583:A2_N 13.8 
10 *278:20 *1561:A2 9.3 
11 *278:10 *278:111 28.9464 
12 *278:111 *278:113 14.3929 
13 *278:113 *278:123 37.1607 
14 *278:123 *278:125 8.01786 
15 *278:125 *1605:A2 18.4786 
16 *278:125 *1696:B1 13.8 
17 *278:123 *1705:A2 15.5679 
18 *278:113 *1595:A2 14.3357 
19 *278:111 *1706:B1 14.3357 
*END

*D_NET *279 0.00917179
*CONN
*I *1558:A1 I *D sky130_fd_sc_hd__a41o_1
*I *1573:A1 I *D sky130_fd_sc_hd__a211o_1
*I *1584:B I *D sky130_fd_sc_hd__or2_1
*I *1585:A1 I *D sky130_fd_sc_hd__a21oi_1
*I *1578:A I *D sky130_fd_sc_hd__nand2_1
*I *1555:Y O *D sky130_fd_sc_hd__nand2_2
*CAP
1 *1558:A1 8.70885e-05
2 *1573:A1 0.000565107
3 *1584:B 0
4 *1585:A1 0.000236753
5 *1578:A 3.71703e-05
6 *1555:Y 0.000157854
7 *279:55 0.0012153
8 *279:23 0.00032955
9 *279:8 0.000407691
10 *279:6 0.000998684
11 *1558:A1 *1558:B1 5.49489e-05
12 *1573:A1 *286:16 2.0876e-05
13 *1573:A1 *288:10 1.01581e-05
14 *1578:A *1659:B1 5.49995e-05
15 *1578:A *299:6 1.84776e-05
16 *1585:A1 *383:25 0
17 *1585:A1 *485:22 8.87037e-05
18 *279:6 *1658:B2 8.59075e-05
19 *279:6 *1659:B1 0.000508219
20 *279:6 *485:22 0.000183556
21 *279:8 *1579:A2 6.2127e-05
22 *279:8 *1659:B1 0.00109742
23 *279:8 *299:6 6.47199e-05
24 *279:8 *485:22 0.000564044
25 *279:23 *474:25 9.11417e-05
26 *279:55 *1742:A 0
27 *279:55 *389:10 0
28 *279:55 *389:157 5.41794e-05
29 *1436:A *279:6 8.46325e-05
30 *1512:B *279:23 9.15842e-06
31 *1513:B *279:23 0.00017984
32 *1516:A *279:55 0.000357925
33 *1516:C *1558:A1 0.000121842
34 *1516:C *1573:A1 2.47724e-05
35 *1516:C *279:55 2.84705e-05
36 *1516:D *1573:A1 0.000185467
37 *1517:B1 *1573:A1 0.000307722
38 *1558:A4 *1558:A1 5.49489e-05
39 *1578:B *1585:A1 5.09584e-05
40 *1579:B1 *279:8 9.67754e-05
41 *153:41 *1573:A1 7.20343e-05
42 *159:41 *279:55 4.58194e-05
43 *161:20 *279:8 3.78275e-05
44 *162:36 *279:6 5.89668e-05
45 *162:38 *279:6 1.98839e-05
46 *163:111 *279:6 0.000200621
47 *200:54 *279:55 9.58126e-05
48 *205:18 *279:6 4.34677e-05
49 *205:24 *279:6 0.000100165
50 *239:49 *279:55 0
*RES
1 *1555:Y *279:6 16.4071 
2 *279:6 *279:8 10.8036 
3 *279:8 *1578:A 10.2643 
4 *279:8 *279:23 11.5536 
5 *279:23 *1585:A1 22.8357 
6 *279:23 *1584:B 9.3 
7 *279:6 *279:55 23.4286 
8 *279:55 *1573:A1 30.8312 
9 *279:55 *1558:A1 15.9786 
*END

*D_NET *280 0.00360563
*CONN
*I *1564:B1_N I *D sky130_fd_sc_hd__a21boi_1
*I *1558:A2 I *D sky130_fd_sc_hd__a41o_1
*I *1573:A2 I *D sky130_fd_sc_hd__a211o_1
*I *1556:X O *D sky130_fd_sc_hd__and2_1
*CAP
1 *1564:B1_N 6.65772e-05
2 *1558:A2 0.000133648
3 *1573:A2 0.000401134
4 *1556:X 0
5 *280:12 0.000945694
6 *280:4 0.00047749
7 *1564:B1_N *1565:A2 0.000225161
8 *1564:B1_N *385:92 5.49097e-05
9 *1573:A2 *1565:A1 1.98839e-05
10 *1573:A2 *1565:A2 7.32173e-05
11 *1573:A2 *286:16 0.000188422
12 *280:12 *1559:B2 9.11048e-06
13 *280:12 *1565:A2 0.000617788
14 *280:12 *1679:A0 2.12933e-05
15 *280:12 *389:10 1.36609e-05
16 *1516:A *1564:B1_N 5.31965e-05
17 *1516:A *280:12 3.18747e-05
18 *1556:B *280:12 1.32056e-05
19 *1558:A4 *1558:A2 0.000228514
20 *241:12 *280:12 0
21 *242:29 *1573:A2 3.08548e-05
*RES
1 *1556:X *280:4 9.3 
2 *280:4 *280:12 17.6607 
3 *280:12 *1573:A2 14.675 
4 *280:12 *1558:A2 12.3357 
5 *280:4 *1564:B1_N 11.9071 
*END

*D_NET *281 0.000865271
*CONN
*I *1558:B1 I *D sky130_fd_sc_hd__a41o_1
*I *1557:X O *D sky130_fd_sc_hd__a21o_1
*CAP
1 *1558:B1 0.000296262
2 *1557:X 0.000296262
3 *1558:B1 *389:157 0
4 *1558:A1 *1558:B1 5.49489e-05
5 *1558:A3 *1558:B1 5.33005e-05
6 *1558:A4 *1558:B1 5.98558e-05
7 *173:107 *1558:B1 0.000101227
8 *242:29 *1558:B1 3.41517e-06
*RES
1 *1557:X *1558:B1 32.7786 
*END

*D_NET *282 0.000738816
*CONN
*I *1559:B2 I *D sky130_fd_sc_hd__a22o_1
*I *1558:X O *D sky130_fd_sc_hd__a41o_1
*CAP
1 *1559:B2 0.00019027
2 *1558:X 0.00019027
3 *1559:B2 *1438:A1 5.80706e-06
4 *1559:B2 *1679:A0 3.56119e-05
5 *165:10 *1559:B2 0.00018548
6 *254:99 *1559:B2 0.000122267
7 *280:12 *1559:B2 9.11048e-06
*RES
1 *1558:X *1559:B2 32.6536 
*END

*D_NET *283 0.000846953
*CONN
*I *1561:B1 I *D sky130_fd_sc_hd__a22o_1
*I *1559:X O *D sky130_fd_sc_hd__a22o_1
*CAP
1 *1561:B1 0.000351655
2 *1559:X 0.000351655
3 *1561:B1 *389:157 0
4 *254:99 *1561:B1 4.13122e-06
5 *278:10 *1561:B1 0
6 *278:42 *1561:B1 0.000139511
*RES
1 *1559:X *1561:B1 34.4036 
*END

*D_NET *284 0.000382028
*CONN
*I *1561:B2 I *D sky130_fd_sc_hd__a22o_1
*I *1560:X O *D sky130_fd_sc_hd__o31a_1
*CAP
1 *1561:B2 0.000189177
2 *1560:X 0.000189177
3 *149:118 *1561:B2 3.67279e-06
*RES
1 *1560:X *1561:B2 30.3143 
*END

*D_NET *285 0.00178194
*CONN
*I *1566:A1 I *D sky130_fd_sc_hd__a21oi_1
*I *1567:C I *D sky130_fd_sc_hd__nand3_1
*I *1562:X O *D sky130_fd_sc_hd__or3b_1
*CAP
1 *1566:A1 0.000148424
2 *1567:C 0
3 *1562:X 0.000251213
4 *285:12 0.000399638
5 *1566:A1 *1567:A 0.000367184
6 *1566:A1 *1568:B1 9.54335e-05
7 *1566:A1 *288:25 5.66971e-05
8 *285:12 *1438:A1 0.000329701
9 *285:12 *1567:A 1.98839e-05
10 *285:12 *1568:B1 5.33005e-05
11 *1567:B *1566:A1 5.46383e-06
12 *1569:B1 *1566:A1 5.50052e-05
*RES
1 *1562:X *285:12 23.2107 
2 *285:12 *1567:C 9.3 
3 *285:12 *1566:A1 13.55 
*END

*D_NET *286 0.00137758
*CONN
*I *1565:A1 I *D sky130_fd_sc_hd__o21ai_2
*I *1573:C1 I *D sky130_fd_sc_hd__a211o_1
*I *1563:X O *D sky130_fd_sc_hd__o21a_1
*CAP
1 *1565:A1 1.86394e-05
2 *1573:C1 0
3 *1563:X 0.000269249
4 *286:16 0.000287889
5 *286:16 *1563:A1 0.00022266
6 *286:16 *288:10 0.000112307
7 *286:16 *474:66 0.000109588
8 *1563:B1 *286:16 2.6269e-05
9 *1573:A1 *286:16 2.0876e-05
10 *1573:A2 *1565:A1 1.98839e-05
11 *1573:A2 *286:16 0.000188422
12 *242:29 *1565:A1 5.33005e-05
13 *242:29 *286:16 4.84963e-05
*RES
1 *1563:X *286:16 16.1929 
2 *286:16 *1573:C1 9.3 
3 *286:16 *1565:A1 9.83571 
*END

*D_NET *287 0.00267408
*CONN
*I *1565:A2 I *D sky130_fd_sc_hd__o21ai_2
*I *1564:Y O *D sky130_fd_sc_hd__a21boi_1
*CAP
1 *1565:A2 0.00052564
2 *1564:Y 0.00052564
3 *1565:A2 *1679:A0 0.000369549
4 *1565:A2 *1824:A 3.50559e-05
5 *1565:A2 *385:92 5.95771e-05
6 *1565:A2 *389:10 7.83587e-05
7 *1516:B *1565:A2 4.06087e-07
8 *1556:B *1565:A2 2.37867e-05
9 *1564:B1_N *1565:A2 0.000225161
10 *1573:A2 *1565:A2 7.32173e-05
11 *242:29 *1565:A2 0.0001399
12 *280:12 *1565:A2 0.000617788
*RES
1 *1564:Y *1565:A2 39.9929 
*END

*D_NET *288 0.00442982
*CONN
*I *1567:A I *D sky130_fd_sc_hd__nand3_1
*I *1566:A2 I *D sky130_fd_sc_hd__a21oi_1
*I *1574:B1 I *D sky130_fd_sc_hd__a22o_1
*I *1565:Y O *D sky130_fd_sc_hd__o21ai_2
*CAP
1 *1567:A 0.000372702
2 *1566:A2 0
3 *1574:B1 0
4 *1565:Y 0.000280964
5 *288:25 0.000654907
6 *288:10 0.000563169
7 *1567:A *1568:B1 8.69355e-05
8 *1567:A *1569:A1 5.36422e-05
9 *1567:A *1570:B1 1.00887e-05
10 *288:10 *1574:B2 0.000101622
11 *288:10 *474:66 0.000303362
12 *288:25 *1568:B1 0.000100165
13 *288:25 *1570:A1 1.47848e-05
14 *1566:A1 *1567:A 0.000367184
15 *1566:A1 *288:25 5.66971e-05
16 *1566:B1 *1567:A 2.50961e-06
17 *1567:B *1567:A 1.02132e-05
18 *1568:A1 *288:25 1.70057e-05
19 *1568:A2 *288:25 0.000123637
20 *1573:A1 *288:10 1.01581e-05
21 *149:70 *288:25 3.68821e-05
22 *149:85 *288:25 0
23 *153:41 *288:10 0.000425926
24 *153:41 *288:25 0.00019554
25 *161:20 *288:10 5.31113e-05
26 *161:33 *288:10 0.00017096
27 *241:40 *1567:A 3.1001e-05
28 *242:29 *288:10 0.000177821
29 *278:42 *288:25 7.6644e-05
30 *285:12 *1567:A 1.98839e-05
31 *286:16 *288:10 0.000112307
*RES
1 *1565:Y *288:10 22.8 
2 *288:10 *1574:B1 13.8 
3 *288:10 *288:25 10.9643 
4 *288:25 *1566:A2 9.3 
5 *288:25 *1567:A 24.5321 
*END

*D_NET *289 0.00116505
*CONN
*I *1570:A1 I *D sky130_fd_sc_hd__o21ai_1
*I *1566:Y O *D sky130_fd_sc_hd__a21oi_1
*CAP
1 *1570:A1 0.00028356
2 *1566:Y 0.00028356
3 *1570:A1 *1568:B1 1.52217e-05
4 *1570:A1 *1570:A2 0.000317595
5 *1570:A1 *1681:A0 0
6 *1570:A1 *462:19 0.000121858
7 *1566:B1 *1570:A1 9.84673e-05
8 *1568:A1 *1570:A1 1.32293e-05
9 *1568:A2 *1570:A1 6.93704e-06
10 *1571:A *1570:A1 9.83423e-06
11 *288:25 *1570:A1 1.47848e-05
*RES
1 *1566:Y *1570:A1 34.7518 
*END

*D_NET *290 0.00112697
*CONN
*I *1568:B1 I *D sky130_fd_sc_hd__o21ai_1
*I *1567:Y O *D sky130_fd_sc_hd__nand3_1
*CAP
1 *1568:B1 0.000153906
2 *1567:Y 0.000153906
3 *1566:A1 *1568:B1 9.54335e-05
4 *1566:B1 *1568:B1 0.000411408
5 *1567:A *1568:B1 8.69355e-05
6 *1569:B1 *1568:B1 5.66971e-05
7 *1570:A1 *1568:B1 1.52217e-05
8 *285:12 *1568:B1 5.33005e-05
9 *288:25 *1568:B1 0.000100165
*RES
1 *1567:Y *1568:B1 24.4929 
*END

*D_NET *291 0.000744947
*CONN
*I *1570:A2 I *D sky130_fd_sc_hd__o21ai_1
*I *1568:Y O *D sky130_fd_sc_hd__o21ai_1
*CAP
1 *1570:A2 0.000193722
2 *1568:Y 0.000193722
3 *1570:A2 *1570:B1 0
4 *1570:A2 *1572:A 3.99088e-05
5 *1570:A1 *1570:A2 0.000317595
*RES
1 *1568:Y *1570:A2 31.6 
*END

*D_NET *292 0.000840341
*CONN
*I *1570:B1 I *D sky130_fd_sc_hd__o21ai_1
*I *1569:X O *D sky130_fd_sc_hd__o31a_1
*CAP
1 *1570:B1 0.000303775
2 *1569:X 0.000303775
3 *1570:B1 *1569:A1 4.41092e-05
4 *1570:B1 *1572:A 6.45179e-05
5 *1570:B1 *380:67 6.7085e-05
6 *1570:B1 *463:29 4.69896e-05
7 *1567:A *1570:B1 1.00887e-05
8 *1570:A2 *1570:B1 0
*RES
1 *1569:X *1570:B1 33.4393 
*END

*D_NET *293 0.000545542
*CONN
*I *1572:A I *D sky130_fd_sc_hd__nand2_1
*I *1570:Y O *D sky130_fd_sc_hd__o21ai_1
*CAP
1 *1572:A 0.000185395
2 *1570:Y 0.000185395
3 *1572:A *1514:A 5.04841e-06
4 *1572:A *1572:B 1.12837e-05
5 *1572:A *380:67 4.3304e-06
6 *1570:A2 *1572:A 3.99088e-05
7 *1570:B1 *1572:A 6.45179e-05
8 *1571:B *1572:A 4.47327e-05
9 *1816:D *1572:A 4.93118e-06
*RES
1 *1570:Y *1572:A 31.1536 
*END

*D_NET *294 0.000156841
*CONN
*I *1572:B I *D sky130_fd_sc_hd__nand2_1
*I *1571:X O *D sky130_fd_sc_hd__or3b_1
*CAP
1 *1572:B 3.58973e-05
2 *1571:X 3.58973e-05
3 *1571:A *1572:B 1.80261e-05
4 *1571:B *1572:B 2.46282e-05
5 *1572:A *1572:B 1.12837e-05
6 *1816:D *1572:B 3.11088e-05
*RES
1 *1571:X *1572:B 19.8679 
*END

*D_NET *295 0.000940415
*CONN
*I *1574:B2 I *D sky130_fd_sc_hd__a22o_1
*I *1573:X O *D sky130_fd_sc_hd__a211o_1
*CAP
1 *1574:B2 0.000175051
2 *1573:X 0.000175051
3 *1563:B1 *1574:B2 2.59355e-05
4 *149:70 *1574:B2 0.000336317
5 *161:33 *1574:B2 0.000126439
6 *288:10 *1574:B2 0.000101622
*RES
1 *1573:X *1574:B2 32.5107 
*END

*D_NET *296 0.00103141
*CONN
*I *1576:B1 I *D sky130_fd_sc_hd__a22o_1
*I *1574:X O *D sky130_fd_sc_hd__a22o_1
*CAP
1 *1576:B1 0.000319393
2 *1574:X 0.000319393
3 *1576:B1 *1576:A1 1.55885e-05
4 *1576:B1 *1576:B2 1.32019e-05
5 *1562:A *1576:B1 0
6 *1574:A1 *1576:B1 4.53889e-05
7 *1815:D *1576:B1 0.000182694
8 *278:42 *1576:B1 8.24501e-05
9 *278:61 *1576:B1 5.33005e-05
*RES
1 *1574:X *1576:B1 24.9214 
*END

*D_NET *297 0.000719608
*CONN
*I *1576:B2 I *D sky130_fd_sc_hd__a22o_1
*I *1575:X O *D sky130_fd_sc_hd__o31a_1
*CAP
1 *1576:B2 0.000242371
2 *1575:X 0.000242371
3 *1576:B2 *1576:A1 3.57366e-05
4 *1576:B2 *1681:A0 5.33882e-05
5 *1576:B2 *1831:A 0
6 *1576:B2 *381:52 9.76689e-05
7 *1576:B1 *1576:B2 1.32019e-05
8 *1815:D *1576:B2 3.48705e-05
9 *278:42 *1576:B2 0
*RES
1 *1575:X *1576:B2 32.5107 
*END

*D_NET *298 0.00133727
*CONN
*I *1579:A1 I *D sky130_fd_sc_hd__a21oi_1
*I *1580:A1 I *D sky130_fd_sc_hd__a31o_1
*I *1577:X O *D sky130_fd_sc_hd__or3b_1
*CAP
1 *1579:A1 6.70652e-05
2 *1580:A1 8.95985e-05
3 *1577:X 0.000209711
4 *298:6 0.000366375
5 *1579:A1 *1581:B1 2.1069e-05
6 *298:6 *1577:C_N 0.000178425
7 *1556:B *298:6 5.33005e-05
8 *1580:B1 *1579:A1 0.00012342
9 *161:20 *1579:A1 0.000168529
10 *240:12 *1580:A1 2.79421e-05
11 *240:12 *298:6 3.18324e-05
*RES
1 *1577:X *298:6 12.7107 
2 *298:6 *1580:A1 10.675 
3 *298:6 *1579:A1 20.55 
*END

*D_NET *299 0.00138
*CONN
*I *1580:A2 I *D sky130_fd_sc_hd__a31o_1
*I *1579:A2 I *D sky130_fd_sc_hd__a21oi_1
*I *1578:Y O *D sky130_fd_sc_hd__nand2_1
*CAP
1 *1580:A2 5.69612e-05
2 *1579:A2 0.000136922
3 *1578:Y 0.000251179
4 *299:6 0.000445062
5 *1580:A2 *1581:B1 0.000121897
6 *1578:A *299:6 1.84776e-05
7 *1579:B1 *1579:A2 6.52296e-05
8 *1579:B1 *1580:A2 0.000120368
9 *1579:B1 *299:6 2.38501e-05
10 *161:20 *1579:A2 1.32056e-05
11 *279:8 *1579:A2 6.2127e-05
12 *279:8 *299:6 6.47199e-05
*RES
1 *1578:Y *299:6 12.3 
2 *299:6 *1579:A2 11.925 
3 *299:6 *1580:A2 19.9429 
*END

*D_NET *300 0.00180384
*CONN
*I *1581:B1 I *D sky130_fd_sc_hd__o22ai_1
*I *1579:Y O *D sky130_fd_sc_hd__a21oi_1
*CAP
1 *1581:B1 0.000428235
2 *1579:Y 0.000428235
3 *1581:B1 *1581:A1 2.59355e-05
4 *1581:B1 *1583:B1 2.41467e-05
5 *1581:B1 *303:133 9.15842e-06
6 *1579:A1 *1581:B1 2.1069e-05
7 *1579:B1 *1581:B1 1.25275e-05
8 *1580:A2 *1581:B1 0.000121897
9 *1580:B1 *1581:B1 0.000236751
10 *1581:A2 *1581:B1 0.000307343
11 *149:70 *1581:B1 0.000136112
12 *161:20 *1581:B1 3.68465e-05
13 *254:82 *1581:B1 1.55857e-05
*RES
1 *1579:Y *1581:B1 37.1179 
*END

*D_NET *301 0.000701915
*CONN
*I *1581:B2 I *D sky130_fd_sc_hd__o22ai_1
*I *1580:X O *D sky130_fd_sc_hd__a31o_1
*CAP
1 *1581:B2 0.000194358
2 *1580:X 0.000194358
3 *1581:B2 *1513:A 0.000154255
4 *1581:B2 *385:92 2.13481e-06
5 *1581:B2 *474:25 0.000127446
6 *1513:B *1581:B2 1.35465e-05
7 *240:6 *1581:B2 1.58163e-05
*RES
1 *1580:X *1581:B2 31.0107 
*END

*D_NET *302 0.000676927
*CONN
*I *1583:B1 I *D sky130_fd_sc_hd__o2bb2ai_1
*I *1581:Y O *D sky130_fd_sc_hd__o22ai_1
*CAP
1 *1583:B1 0.000234527
2 *1581:Y 0.000234527
3 *1583:B1 *1583:A1_N 0.000183726
4 *1581:B1 *1583:B1 2.41467e-05
*RES
1 *1581:Y *1583:B1 23.1446 
*END

*D_NET *303 0.0290678
*CONN
*I *1661:A2 I *D sky130_fd_sc_hd__a31o_1
*I *1659:A2 I *D sky130_fd_sc_hd__a31o_1
*I *1583:B2 I *D sky130_fd_sc_hd__o2bb2ai_1
*I *1666:A1 I *D sky130_fd_sc_hd__o21ai_1
*I *1587:A1_N I *D sky130_fd_sc_hd__a2bb2o_1
*I *1649:A2 I *D sky130_fd_sc_hd__a31o_1
*I *1653:A2 I *D sky130_fd_sc_hd__a31o_1
*I *1655:A2 I *D sky130_fd_sc_hd__a31o_1
*I *1651:A2 I *D sky130_fd_sc_hd__a31o_1
*I *1657:A2 I *D sky130_fd_sc_hd__a31o_1
*I *1582:X O *D sky130_fd_sc_hd__clkbuf_4
*CAP
1 *1661:A2 0
2 *1659:A2 0
3 *1583:B2 0.000137897
4 *1666:A1 6.82013e-05
5 *1587:A1_N 0
6 *1649:A2 0
7 *1653:A2 0
8 *1655:A2 0.000331361
9 *1651:A2 4.97832e-05
10 *1657:A2 0.000142276
11 *1582:X 0.000115385
12 *303:145 0.000514467
13 *303:135 0.000584163
14 *303:133 0.00190246
15 *303:115 0.00234038
16 *303:73 0.00135691
17 *303:63 0.00176237
18 *303:47 0.00116439
19 *303:20 0.00255008
20 *303:10 0.00258333
21 *1583:B2 *1659:A1 0.000318294
22 *1583:B2 *360:164 8.91963e-06
23 *1583:B2 *385:45 7.24611e-05
24 *1651:A2 *1651:B1 0
25 *1651:A2 *396:16 1.02504e-05
26 *1651:A2 *409:14 0
27 *1655:A2 *1651:B1 0
28 *1655:A2 *383:48 5.71472e-05
29 *1655:A2 *383:61 0.000257248
30 *1655:A2 *387:52 0.00052996
31 *1655:A2 *409:14 0
32 *1657:A2 *1649:B1 9.07388e-05
33 *1657:A2 *1657:B1 9.54798e-06
34 *1657:A2 *1740:A 1.03403e-05
35 *1666:A1 *1587:A2_N 1.04232e-05
36 *1666:A1 *1666:B1 7.27536e-05
37 *1666:A1 *1667:A2 0.000269628
38 *1666:A1 *1667:B1 9.83388e-05
39 *1666:A1 *361:42 1.02936e-05
40 *303:10 *483:61 5.78663e-05
41 *303:20 *1469:A 6.05374e-05
42 *303:20 *1473:A1 0.000312363
43 *303:20 *1640:A0 0
44 *303:20 *1648:A1 2.45807e-05
45 *303:20 *1648:B1 0
46 *303:20 *1648:B2 3.57258e-05
47 *303:20 *1649:B1 0.000293795
48 *303:20 *1650:A1 3.45592e-05
49 *303:20 *1740:A 5.57948e-05
50 *303:20 *481:41 0.000117302
51 *303:20 *481:47 0.000272293
52 *303:20 *481:59 1.88175e-05
53 *303:20 *482:50 0
54 *303:20 *483:61 3.92861e-05
55 *303:47 *1649:A1 0.000436311
56 *303:47 *486:35 1.44979e-05
57 *303:63 *1653:A1 0.000354934
58 *303:63 *1687:A0 0.000172759
59 *303:63 *1687:A1 0.000568356
60 *303:63 *338:32 0.00010776
61 *303:63 *383:99 2.39313e-05
62 *303:63 *487:43 8.43535e-06
63 *303:63 *488:16 0.000186765
64 *303:73 *1793:CLK 0.000195396
65 *303:73 *487:43 1.98839e-05
66 *303:115 *1473:A1 6.96806e-05
67 *303:115 *1661:A1 8.02984e-05
68 *303:133 *1659:B1 0.000794477
69 *303:133 *1660:A1 0.000181828
70 *303:133 *1661:A1 3.50746e-05
71 *303:133 *1661:B1 5.74499e-06
72 *303:145 *1587:A2_N 5.7661e-06
73 *303:145 *1666:B1 0.00014183
74 *303:145 *1667:A2 2.44318e-05
75 *303:145 *306:12 4.43256e-05
76 *303:145 *360:164 0.000101266
77 *303:145 *383:25 0
78 *303:145 *385:45 9.10697e-05
79 *303:145 *385:51 0.000219449
80 *1440:A *303:20 0.000183841
81 *1447:A *303:20 5.09592e-05
82 *1447:C *303:20 3.34774e-05
83 *1449:A2 *303:20 0
84 *1461:C *303:20 0.000265893
85 *1465:B2 *303:20 0.000103267
86 *1470:A1 *303:20 0.000309336
87 *1472:A1 *303:20 4.33002e-05
88 *1472:A2 *303:20 0
89 *1473:A2 *303:20 0
90 *1580:B1 *303:133 8.50412e-05
91 *1581:B1 *303:133 9.15842e-06
92 *1584:A *303:133 0.000178847
93 *1651:A3 *303:73 5.89831e-05
94 *1656:A2 *303:47 1.66776e-05
95 *1657:A3 *1657:A2 1.73088e-05
96 *1657:A3 *303:63 0
97 *1659:A3 *303:145 0.000160924
98 *1660:A2 *303:133 5.22045e-05
99 *1792:D *303:63 5.52302e-05
100 *1793:D *303:73 2.89016e-05
101 *1794:D *303:73 3.18676e-05
102 *1794:RESET_B *303:63 0.00013359
103 *1795:RESET_B *1655:A2 8.94714e-05
104 *1813:RESET_B *303:145 0.000148841
105 *155:16 *303:20 1.8441e-05
106 *157:12 *303:20 0
107 *157:23 *303:10 5.541e-05
108 *157:23 *303:20 9.70635e-05
109 *160:35 *303:115 0.000773085
110 *160:35 *303:133 8.40924e-05
111 *163:111 *303:10 5.49995e-05
112 *173:91 *303:20 0.00018867
113 *174:10 *303:20 0
114 *200:8 *303:115 4.97967e-05
115 *205:18 *303:115 0.000166322
116 *239:49 *303:133 0.000383624
117 *254:82 *303:133 0.00019087
118 *255:35 *303:20 2.66026e-05
119 *259:129 *303:20 0.00149233
120 *266:28 *303:20 0
121 *266:51 *303:63 2.44318e-05
122 *266:67 *303:63 0.000306936
123 *266:79 *303:73 0.000406815
124 *266:119 *303:20 0
125 *278:71 *1583:B2 0
126 *278:71 *303:145 5.41794e-05
*RES
1 *1582:X *303:10 15.9786 
2 *303:10 *303:20 47.8482 
3 *303:20 *1657:A2 16.5946 
4 *303:20 *303:47 13.1317 
5 *303:47 *303:63 27.8929 
6 *303:63 *303:73 18.6429 
7 *303:73 *1651:A2 14.5321 
8 *303:73 *1655:A2 22.9964 
9 *303:63 *1653:A2 9.3 
10 *303:47 *1649:A2 9.3 
11 *303:10 *303:115 15.75 
12 *303:115 *303:133 36.4107 
13 *303:133 *303:135 4.5 
14 *303:135 *303:145 16.3571 
15 *303:145 *1587:A1_N 9.3 
16 *303:145 *1666:A1 12.3179 
17 *303:135 *1583:B2 18.175 
18 *303:133 *1659:A2 9.3 
19 *303:115 *1661:A2 9.3 
*END

*D_NET *304 0.000954596
*CONN
*I *1586:B1 I *D sky130_fd_sc_hd__a22oi_2
*I *1584:X O *D sky130_fd_sc_hd__or2_1
*CAP
1 *1586:B1 0.000142678
2 *1584:X 0.000142678
3 *1586:B1 *1586:A1 5.33005e-05
4 *1586:B1 *1586:B2 0.000170654
5 *1586:B1 *491:61 8.47107e-05
6 *1585:B1 *1586:B1 2.84026e-05
7 *254:82 *1586:B1 0.000332173
*RES
1 *1584:X *1586:B1 32.5107 
*END

*D_NET *305 0.00121408
*CONN
*I *1586:B2 I *D sky130_fd_sc_hd__a22oi_2
*I *1585:Y O *D sky130_fd_sc_hd__a21oi_1
*CAP
1 *1586:B2 0.000352297
2 *1585:Y 0.000352297
3 *1586:B2 *1586:A1 0
4 *1586:B2 *389:36 2.77289e-05
5 *1586:B2 *491:61 0.000101545
6 *1585:A2 *1586:B2 5.62995e-05
7 *1585:B1 *1586:B2 5.52238e-05
8 *1586:B1 *1586:B2 0.000170654
9 *239:6 *1586:B2 9.80346e-05
*RES
1 *1585:Y *1586:B2 35.475 
*END

*D_NET *306 0.00352603
*CONN
*I *1587:A2_N I *D sky130_fd_sc_hd__a2bb2o_1
*I *1667:A2 I *D sky130_fd_sc_hd__o21ai_1
*I *1586:Y O *D sky130_fd_sc_hd__a22oi_2
*CAP
1 *1587:A2_N 1.79444e-05
2 *1667:A2 0.00016615
3 *1586:Y 0.000272743
4 *306:12 0.000456837
5 *1667:A2 *1667:A1 1.97695e-05
6 *1667:A2 *1667:B1 2.36643e-05
7 *1667:A2 *1674:A2_N 3.18747e-05
8 *306:12 *1587:B2 0.000790938
9 *306:12 *1666:B1 1.21289e-05
10 *306:12 *361:42 1.51489e-05
11 *306:12 *383:156 0.000748005
12 *1528:B *306:12 9.90431e-05
13 *1580:B1 *306:12 3.34366e-05
14 *1666:A1 *1587:A2_N 1.04232e-05
15 *1666:A1 *1667:A2 0.000269628
16 *1813:D *1667:A2 0.000141555
17 *149:70 *306:12 4.33438e-05
18 *254:82 *306:12 6.09572e-05
19 *278:71 *1667:A2 5.71472e-05
20 *278:71 *306:12 0.00018077
21 *303:145 *1587:A2_N 5.7661e-06
22 *303:145 *1667:A2 2.44318e-05
23 *303:145 *306:12 4.43256e-05
*RES
1 *1586:Y *306:12 29.925 
2 *306:12 *1667:A2 13.9607 
3 *306:12 *1587:A2_N 9.72857 
*END

*D_NET *307 0.00207011
*CONN
*I *1590:A1 I *D sky130_fd_sc_hd__a21o_1
*I *1598:A2 I *D sky130_fd_sc_hd__a31o_1
*I *1597:A1 I *D sky130_fd_sc_hd__a21oi_1
*I *1588:Y O *D sky130_fd_sc_hd__nand3_1
*CAP
1 *1590:A1 2.60795e-05
2 *1598:A2 0.000309162
3 *1597:A1 1.91209e-05
4 *1588:Y 0.000132965
5 *307:21 0.000483988
6 *307:8 0.000300832
7 *1590:A1 *1598:A1 7.83659e-05
8 *1598:A2 *1598:A1 1.57414e-05
9 *1598:A2 *1599:A2_N 7.57196e-05
10 *307:8 *1599:A1_N 2.89114e-05
11 *307:21 *1598:A1 7.83587e-05
12 *1588:A *1597:A1 0
13 *1597:A2 *307:21 5.49544e-05
14 *1598:A3 *1598:A2 2.59355e-05
15 *1598:B1 *307:21 2.82057e-05
16 *193:29 *307:21 0
17 *259:98 *1590:A1 6.98302e-05
18 *259:98 *307:21 0.000247778
19 *263:130 *1598:A2 9.41642e-05
*RES
1 *1588:Y *307:8 11.4964 
2 *307:8 *1597:A1 9.72857 
3 *307:8 *307:21 8.60714 
4 *307:21 *1598:A2 17.9429 
5 *307:21 *1590:A1 14.8357 
*END

*D_NET *308 0.00305573
*CONN
*I *1598:A1 I *D sky130_fd_sc_hd__a31o_1
*I *1590:B1 I *D sky130_fd_sc_hd__a21o_1
*I *1597:B1 I *D sky130_fd_sc_hd__a21oi_1
*I *1589:Y O *D sky130_fd_sc_hd__o21ai_1
*CAP
1 *1598:A1 0.000264575
2 *1590:B1 0
3 *1597:B1 0.000202513
4 *1589:Y 7.80212e-05
5 *308:18 0.000277524
6 *308:10 0.000417607
7 *1597:B1 *1599:A1_N 7.6644e-05
8 *1598:A1 *1599:A1_N 0
9 *1598:A1 *1599:A2_N 0.000100126
10 *1598:A1 *1599:B1 8.00842e-05
11 *308:10 *1599:B1 0.000117421
12 *1511:A *1597:B1 0
13 *1511:C *1597:B1 0
14 *1590:A1 *1598:A1 7.83659e-05
15 *1598:A2 *1598:A1 1.57414e-05
16 *1598:A3 *1598:A1 2.59355e-05
17 *1598:B1 *1598:A1 0.000400897
18 *193:71 *1597:B1 9.90431e-05
19 *193:71 *308:18 9.60875e-05
20 *255:52 *1597:B1 9.90431e-05
21 *255:52 *308:18 8.44071e-05
22 *259:98 *1597:B1 0.000110554
23 *259:98 *1598:A1 1.81709e-05
24 *259:98 *308:10 3.88323e-05
25 *259:98 *308:18 4.34543e-05
26 *263:100 *1597:B1 0.000199698
27 *263:106 *1597:B1 5.26277e-05
28 *307:21 *1598:A1 7.83587e-05
*RES
1 *1589:Y *308:10 15.8268 
2 *308:10 *308:18 6.5625 
3 *308:18 *1597:B1 24.2286 
4 *308:18 *1590:B1 9.3 
5 *308:10 *1598:A1 21.0768 
*END

*D_NET *309 0.00199741
*CONN
*I *1592:B1 I *D sky130_fd_sc_hd__a22o_1
*I *1591:A4 I *D sky130_fd_sc_hd__a41oi_1
*I *1590:X O *D sky130_fd_sc_hd__a21o_1
*CAP
1 *1592:B1 0.000163941
2 *1591:A4 0
3 *1590:X 0.000338519
4 *309:10 0.00050246
5 *1592:B1 *1593:B 0
6 *1592:B1 *472:24 8.43535e-06
7 *1479:B1 *309:10 4.13477e-05
8 *1592:A2 *1592:B1 0.000163874
9 *1592:B2 *1592:B1 0.000109318
10 *193:71 *309:10 3.18676e-05
11 *201:23 *1592:B1 1.02504e-05
12 *201:23 *309:10 0.000125731
13 *203:10 *309:10 0.000194498
14 *203:19 *309:10 5.83233e-05
15 *203:32 *1592:B1 4.49293e-05
16 *203:32 *309:10 0.000146474
17 *259:98 *309:10 0
18 *263:106 *309:10 5.74447e-05
*RES
1 *1590:X *309:10 20.8357 
2 *309:10 *1591:A4 13.8 
3 *309:10 *1592:B1 17.1214 
*END

*D_NET *310 0.000636
*CONN
*I *1593:A I *D sky130_fd_sc_hd__nand2_1
*I *1591:Y O *D sky130_fd_sc_hd__a41oi_1
*CAP
1 *1593:A 0.000229845
2 *1591:Y 0.000229845
3 *1593:A *385:102 4.38375e-05
4 *1593:A *400:34 5.58332e-05
5 *1593:A *472:54 6.42022e-05
6 *1591:A1 *1593:A 1.24368e-05
*RES
1 *1591:Y *1593:A 31.4214 
*END

*D_NET *311 0.000169338
*CONN
*I *1593:B I *D sky130_fd_sc_hd__nand2_1
*I *1592:X O *D sky130_fd_sc_hd__a22o_1
*CAP
1 *1593:B 6.74661e-05
2 *1592:X 6.74661e-05
3 *1593:B *472:24 1.32056e-05
4 *1592:B1 *1593:B 0
5 *278:123 *1593:B 2.12005e-05
*RES
1 *1592:X *1593:B 19.8679 
*END

*D_NET *312 0.00233929
*CONN
*I *1668:A1 I *D sky130_fd_sc_hd__a32o_1
*I *1595:B1 I *D sky130_fd_sc_hd__a22o_1
*I *1593:Y O *D sky130_fd_sc_hd__nand2_1
*CAP
1 *1668:A1 0.000129188
2 *1595:B1 0
3 *1593:Y 0.000569032
4 *312:10 0.000698219
5 *1668:A1 *1668:A2 6.68652e-05
6 *312:10 *472:24 6.75952e-05
7 *1538:B1 *1668:A1 0.000128305
8 *1538:B1 *312:10 0.000145253
9 *162:22 *1668:A1 9.39675e-05
10 *278:123 *312:10 0.000440865
*RES
1 *1593:Y *312:10 23.0321 
2 *312:10 *1595:B1 13.8 
3 *312:10 *1668:A1 17.4964 
*END

*D_NET *313 0.00173847
*CONN
*I *1595:B2 I *D sky130_fd_sc_hd__a22o_1
*I *1668:A2 I *D sky130_fd_sc_hd__a32o_1
*I *1594:X O *D sky130_fd_sc_hd__o31a_1
*CAP
1 *1595:B2 0
2 *1668:A2 0.000193195
3 *1594:X 0.000376881
4 *313:12 0.000570076
5 *1668:A2 *1668:A3 3.63587e-05
6 *1668:A2 *1812:CLK 0.000197362
7 *313:12 *1594:A1 5.23822e-05
8 *313:12 *1812:CLK 5.49995e-05
9 *313:12 *385:100 1.39139e-05
10 *1594:A2 *313:12 1.0591e-05
11 *1594:A3 *313:12 7.43598e-05
12 *1668:A1 *1668:A2 6.68652e-05
13 *162:22 *1668:A2 9.14827e-05
*RES
1 *1594:X *313:12 15.2286 
2 *313:12 *1668:A2 22.5321 
3 *313:12 *1595:B2 9.3 
*END

*D_NET *314 0.0234402
*CONN
*I *1626:A2 I *D sky130_fd_sc_hd__a22o_1
*I *1652:B1 I *D sky130_fd_sc_hd__a22o_1
*I *1654:B1 I *D sky130_fd_sc_hd__a22o_1
*I *1600:A2 I *D sky130_fd_sc_hd__a22o_1
*I *1610:A2 I *D sky130_fd_sc_hd__a22o_1
*I *1648:B1 I *D sky130_fd_sc_hd__a22o_1
*I *1656:B1 I *D sky130_fd_sc_hd__a22o_1
*I *1650:B1 I *D sky130_fd_sc_hd__a22o_1
*I *1621:A2 I *D sky130_fd_sc_hd__a22o_1
*I *1647:A2 I *D sky130_fd_sc_hd__a221o_1
*I *1596:X O *D sky130_fd_sc_hd__clkbuf_4
*CAP
1 *1626:A2 0
2 *1652:B1 9.4981e-06
3 *1654:B1 0
4 *1600:A2 0.000293085
5 *1610:A2 3.46794e-06
6 *1648:B1 0.000215409
7 *1656:B1 3.27985e-05
8 *1650:B1 6.53791e-05
9 *1621:A2 7.3182e-05
10 *1647:A2 1.26062e-05
11 *1596:X 0.000223148
12 *314:109 0.00140145
13 *314:86 0.00166282
14 *314:73 0.00188896
15 *314:65 0.00179521
16 *314:52 0.00041697
17 *314:48 0.000381886
18 *314:40 0.000581166
19 *314:29 0.00208104
20 *314:10 0.00196481
21 *1600:A2 *1600:A1 3.11088e-05
22 *1600:A2 *1669:A0 0.000125281
23 *1600:A2 *1755:A 0.000226279
24 *1600:A2 *317:18 6.14702e-06
25 *1600:A2 *325:14 1.05521e-05
26 *1600:A2 *469:37 1.25366e-05
27 *1610:A2 *1672:A0 6.73707e-06
28 *1610:A2 *325:14 5.54817e-06
29 *1647:A2 *473:8 1.59935e-05
30 *1647:A2 *491:43 3.28686e-05
31 *1648:B1 *1640:A0 0.00016485
32 *1648:B1 *1648:B2 0.000100165
33 *1648:B1 *388:14 0.000100165
34 *1650:B1 *1650:A1 2.38501e-05
35 *1650:B1 *1651:B1 1.62025e-05
36 *1650:B1 *1652:A1 0.000378007
37 *1652:B1 *1650:A1 5.66971e-05
38 *1652:B1 *1652:A1 2.8451e-05
39 *1656:B1 *487:53 3.45371e-05
40 *314:10 *1742:A 0.000525935
41 *314:10 *383:156 0.000137505
42 *314:10 *473:8 0.000938201
43 *314:10 *491:43 0.000232539
44 *314:29 *1499:B 1.00375e-05
45 *314:29 *1790:CLK 0.000170301
46 *314:29 *339:61 0.000664963
47 *314:29 *469:70 5.41054e-05
48 *314:40 *1626:A1 6.94441e-06
49 *314:40 *1638:S 0
50 *314:40 *1822:A 2.69614e-05
51 *314:40 *338:10 0.000285209
52 *314:40 *339:61 0
53 *314:48 *1652:B2 4.27842e-06
54 *314:48 *338:10 5.54817e-06
55 *314:48 *338:32 4.04224e-05
56 *314:52 *1650:A1 3.04236e-05
57 *314:52 *1652:A1 0.00024547
58 *314:52 *1652:B2 5.50052e-05
59 *314:65 *1654:B2 9.00763e-05
60 *314:65 *1655:B1 8.00245e-05
61 *314:65 *338:32 0.000146254
62 *314:73 *1654:B2 3.10885e-05
63 *314:73 *360:24 0.000132625
64 *314:73 *382:84 0.000916894
65 *314:73 *412:8 1.4211e-05
66 *314:73 *487:43 0.000119297
67 *314:73 *487:53 0
68 *314:86 *1640:A0 0.000194941
69 *314:86 *487:43 1.74352e-05
70 *314:86 *487:53 0.000186662
71 *314:109 *1640:A0 4.09646e-05
72 *314:109 *1670:A 1.03037e-05
73 *314:109 *1672:A0 0.000153068
74 *314:109 *1677:A1 3.47956e-06
75 *314:109 *338:32 0.000822333
76 *314:109 *360:41 6.89735e-05
77 *1482:A *314:29 0.000191337
78 *1492:A *314:29 5.79582e-06
79 *1494:A1 *314:29 4.72217e-05
80 *1499:A *314:29 0.000144896
81 *1600:B2 *1600:A2 0.000388542
82 *1611:A1 *314:29 9.60337e-06
83 *1650:A2 *1650:B1 0.000272338
84 *1650:A2 *314:52 8.17274e-05
85 *1654:A2 *314:65 0.0001201
86 *1654:A2 *314:73 1.578e-05
87 *1656:A2 *314:86 0.000155666
88 *1657:A3 *1648:B1 1.04707e-05
89 *1657:A3 *314:86 6.30931e-05
90 *1793:RESET_B *314:65 0.000148189
91 *1806:D *314:40 7.48554e-05
92 *1807:D *1621:A2 9.80173e-05
93 *207:10 *314:29 0.000172049
94 *208:14 *314:29 2.11419e-05
95 *229:16 *314:29 0
96 *259:141 *314:48 5.15568e-05
97 *263:12 *314:29 0
98 *263:43 *314:29 4.43029e-05
99 *266:28 *1648:B1 0.000371751
100 *266:67 *314:73 1.03968e-05
101 *303:20 *1648:B1 0
*RES
1 *1596:X *314:10 19.8357 
2 *314:10 *1647:A2 9.63036 
3 *314:10 *314:29 42.75 
4 *314:29 *1621:A2 10.6571 
5 *314:29 *314:40 11.6071 
6 *314:40 *314:48 8.42857 
7 *314:48 *314:52 2.60714 
8 *314:52 *1650:B1 13.1393 
9 *314:52 *314:65 11.6071 
10 *314:65 *314:73 26.1071 
11 *314:73 *1656:B1 10.0321 
12 *314:73 *314:86 12.4196 
13 *314:86 *1648:B1 20.2911 
14 *314:86 *314:109 24.4643 
15 *314:109 *1610:A2 14.0768 
16 *314:109 *1600:A2 22.3804 
17 *314:65 *1654:B1 13.8 
18 *314:48 *1652:B1 9.83571 
19 *314:40 *1626:A2 13.8 
*END

*D_NET *315 0.0004628
*CONN
*I *1599:A1_N I *D sky130_fd_sc_hd__a2bb2o_1
*I *1597:Y O *D sky130_fd_sc_hd__a21oi_1
*CAP
1 *1599:A1_N 0.00013531
2 *1597:Y 0.00013531
3 *1511:B *1599:A1_N 9.7049e-06
4 *1511:D *1599:A1_N 0
5 *1597:B1 *1599:A1_N 7.6644e-05
6 *1598:A1 *1599:A1_N 0
7 *259:98 *1599:A1_N 3.92854e-05
8 *263:100 *1599:A1_N 5.7661e-06
9 *263:130 *1599:A1_N 3.18676e-05
10 *307:8 *1599:A1_N 2.89114e-05
*RES
1 *1597:Y *1599:A1_N 30.4393 
*END

*D_NET *316 0.000522416
*CONN
*I *1599:A2_N I *D sky130_fd_sc_hd__a2bb2o_1
*I *1598:X O *D sky130_fd_sc_hd__a31o_1
*CAP
1 *1599:A2_N 0.000105771
2 *1598:X 0.000105771
3 *1598:A1 *1599:A2_N 0.000100126
4 *1598:A2 *1599:A2_N 7.57196e-05
5 *263:130 *1599:A2_N 0.000135028
*RES
1 *1598:X *1599:A2_N 21.6179 
*END

*D_NET *317 0.00576134
*CONN
*I *1600:B1 I *D sky130_fd_sc_hd__a22o_1
*I *1669:A0 I *D sky130_fd_sc_hd__mux2_1
*I *1599:X O *D sky130_fd_sc_hd__a2bb2o_1
*CAP
1 *1600:B1 0
2 *1669:A0 0.000394335
3 *1599:X 0.00127275
4 *317:18 0.00166709
5 *1669:A0 *1672:A0 0.0001871
6 *317:18 *1609:B1 8.66324e-05
7 *317:18 *318:20 1.40043e-05
8 *317:18 *469:37 0
9 *317:18 *470:36 0.00019384
10 *317:18 *471:18 0
11 *317:18 *471:31 0
12 *1457:A2 *317:18 0
13 *1457:B1 *317:18 0.000102305
14 *1465:A1 *317:18 0
15 *1508:B1 *317:18 5.44074e-05
16 *1511:B *317:18 0.000217806
17 *1511:D *317:18 9.80029e-05
18 *1600:A2 *1669:A0 0.000125281
19 *1600:A2 *317:18 6.14702e-06
20 *1606:A2 *317:18 0.000218012
21 *1606:B2 *317:18 6.53968e-05
22 *1811:D *1669:A0 0.000116658
23 *178:33 *317:18 4.038e-06
24 *228:56 *317:18 0.000314231
25 *231:31 *317:18 0.00012401
26 *236:10 *317:18 0
27 *236:25 *317:18 0
28 *237:12 *317:18 0.000305292
29 *263:100 *317:18 0.000177489
30 *263:106 *317:18 8.25843e-06
31 *263:130 *317:18 8.25843e-06
*RES
1 *1599:X *317:18 42.7107 
2 *317:18 *1669:A0 22.0679 
3 *317:18 *1600:B1 13.8 
*END

*D_NET *318 0.00257861
*CONN
*I *1602:B2 I *D sky130_fd_sc_hd__a22oi_1
*I *1603:A4 I *D sky130_fd_sc_hd__a41o_1
*I *1608:B I *D sky130_fd_sc_hd__and3_1
*I *1601:Y O *D sky130_fd_sc_hd__o2111ai_2
*CAP
1 *1602:B2 2.42922e-05
2 *1603:A4 0.000240876
3 *1608:B 6.29844e-05
4 *1601:Y 0.000114142
5 *318:20 0.000408641
6 *318:12 0.000243215
7 *1602:B2 *1604:B1 6.05161e-06
8 *1603:A4 *1604:B2 0.000310774
9 *318:12 *1608:C 0.000131278
10 *318:20 *1608:C 0.000123944
11 *1601:A2 *318:12 0
12 *1601:D1 *318:12 6.05161e-06
13 *1603:A3 *1603:A4 0.000309876
14 *1603:B1 *1603:A4 2.14757e-05
15 *228:43 *318:12 1.21258e-05
16 *231:12 *1603:A4 4.18895e-05
17 *231:12 *1608:B 0.00013478
18 *231:31 *318:20 0.000103267
19 *234:6 *1602:B2 5.33005e-05
20 *237:12 *318:12 0.000120348
21 *237:12 *318:20 3.10819e-05
22 *263:92 *1603:A4 6.42095e-05
23 *317:18 *318:20 1.40043e-05
*RES
1 *1601:Y *318:12 16.4071 
2 *318:12 *318:20 7.41071 
3 *318:20 *1608:B 10.675 
4 *318:20 *1603:A4 15.1929 
5 *318:12 *1602:B2 14.3357 
*END

*D_NET *319 0.00277447
*CONN
*I *1604:B1 I *D sky130_fd_sc_hd__o221a_1
*I *1602:Y O *D sky130_fd_sc_hd__a22oi_1
*CAP
1 *1604:B1 0.000807567
2 *1602:Y 0.000807567
3 *1604:B1 *1507:B 7.14196e-06
4 *1604:B1 *1607:B1 1.94945e-05
5 *1604:B1 *385:102 4.3143e-05
6 *1604:B1 *469:37 9.60875e-05
7 *1601:A2 *1604:B1 2.89016e-05
8 *1602:B2 *1604:B1 6.05161e-06
9 *1696:A1 *1604:B1 2.56683e-05
10 *193:16 *1604:B1 8.00843e-06
11 *234:6 *1604:B1 5.38242e-05
12 *259:102 *1604:B1 3.47641e-06
13 *259:129 *1604:B1 0.000867541
*RES
1 *1602:Y *1604:B1 39.1411 
*END

*D_NET *320 0.00135874
*CONN
*I *1604:B2 I *D sky130_fd_sc_hd__o221a_1
*I *1603:X O *D sky130_fd_sc_hd__a41o_1
*CAP
1 *1604:B2 0.000453531
2 *1603:X 0.000453531
3 *1604:B2 *385:102 0.000123295
4 *1601:A2 *1604:B2 1.76135e-05
5 *1603:A4 *1604:B2 0.000310774
*RES
1 *1603:X *1604:B2 33.8857 
*END

*D_NET *321 0.00889135
*CONN
*I *1671:B1 I *D sky130_fd_sc_hd__a22o_1
*I *1605:B1 I *D sky130_fd_sc_hd__a21o_1
*I *1604:X O *D sky130_fd_sc_hd__o221a_1
*CAP
1 *1671:B1 0.000188579
2 *1605:B1 0.000135301
3 *1604:X 0.000120229
4 *321:23 0.00192011
5 *321:8 0.00198706
6 *1605:B1 *388:139 8.22245e-05
7 *1671:B1 *1671:A1 3.87535e-05
8 *1671:B1 *1671:A2 5.08826e-05
9 *321:8 *388:139 0.000140243
10 *321:8 *470:12 1.98839e-05
11 *321:23 *1530:B 0.000202128
12 *321:23 *1636:A0 0
13 *321:23 *1770:CLK 0.000390379
14 *321:23 *359:20 0
15 *321:23 *390:53 0.000188074
16 *321:23 *400:28 0.000153054
17 *1531:A1 *321:23 0
18 *1604:A2 *321:23 0
19 *1605:A2 *1605:B1 0.000128425
20 *1605:A2 *321:23 6.28547e-05
21 *1696:A2 *321:23 0.00172737
22 *1767:D *321:23 3.5707e-05
23 *163:124 *321:23 0.00131352
24 *278:125 *321:23 6.57499e-06
*RES
1 *1604:X *321:8 15.9786 
2 *321:8 *1605:B1 17.4964 
3 *321:8 *321:23 49.5536 
4 *321:23 *1671:B1 11.9071 
*END

*D_NET *322 0.00186472
*CONN
*I *1607:B1 I *D sky130_fd_sc_hd__a21o_1
*I *1606:X O *D sky130_fd_sc_hd__o22a_1
*CAP
1 *1607:B1 0.000549761
2 *1606:X 0.000549761
3 *1607:B1 *1507:B 0
4 *1607:B1 *469:37 0.000266092
5 *1607:B1 *470:46 6.97972e-05
6 *1604:B1 *1607:B1 1.94945e-05
7 *1608:A *1607:B1 0.000103321
8 *173:162 *1607:B1 0
9 *230:6 *1607:B1 0.000306491
*RES
1 *1606:X *1607:B1 37.1 
*END

*D_NET *323 0.00148115
*CONN
*I *1608:C I *D sky130_fd_sc_hd__and3_1
*I *1607:X O *D sky130_fd_sc_hd__a21o_1
*CAP
1 *1608:C 0.000256488
2 *1607:X 0.000256488
3 *1608:C *1609:B1 4.46186e-06
4 *1608:C *469:37 1.3142e-05
5 *1601:D1 *1608:C 1.32056e-05
6 *1606:A2 *1608:C 2.37761e-05
7 *1607:A1 *1608:C 0.000182806
8 *1608:A *1608:C 0.000350736
9 *228:43 *1608:C 0.000111276
10 *231:31 *1608:C 4.038e-06
11 *263:92 *1608:C 9.50968e-06
12 *318:12 *1608:C 0.000131278
13 *318:20 *1608:C 0.000123944
*RES
1 *1607:X *1608:C 35.3857 
*END

*D_NET *324 0.000791718
*CONN
*I *1609:B1 I *D sky130_fd_sc_hd__a31o_1
*I *1608:X O *D sky130_fd_sc_hd__and3_1
*CAP
1 *1609:B1 0.00017172
2 *1608:X 0.00017172
3 *1609:B1 *469:37 0
4 *1609:B1 *470:36 5.52302e-05
5 *1457:A1 *1609:B1 5.33005e-05
6 *1606:A2 *1609:B1 0.000147474
7 *1608:C *1609:B1 4.46186e-06
8 *1609:A2 *1609:B1 2.28428e-05
9 *178:12 *1609:B1 4.66203e-05
10 *178:33 *1609:B1 3.17148e-05
11 *317:18 *1609:B1 8.66324e-05
*RES
1 *1608:X *1609:B1 32.2071 
*END

*D_NET *325 0.00533896
*CONN
*I *1610:B1 I *D sky130_fd_sc_hd__a22o_1
*I *1672:A0 I *D sky130_fd_sc_hd__mux2_1
*I *1609:X O *D sky130_fd_sc_hd__a31o_1
*CAP
1 *1610:B1 0
2 *1672:A0 0.000749816
3 *1609:X 0.000714281
4 *325:14 0.0014641
5 *1672:A0 *1649:A1 0.000105045
6 *1672:A0 *1669:A1 0.000489523
7 *1672:A0 *1850:A 5.86424e-05
8 *1672:A0 *1883:A 0
9 *1672:A0 *360:41 0.000331497
10 *1672:A0 *388:80 0
11 *325:14 *1833:A 0
12 *325:14 *408:26 0.00033711
13 *325:14 *469:37 0.000432822
14 *325:14 *470:46 6.05161e-06
15 *1458:C1 *325:14 0.000197455
16 *1600:A2 *325:14 1.05521e-05
17 *1600:B2 *325:14 8.74795e-05
18 *1609:A3 *325:14 2.13481e-06
19 *1610:A2 *1672:A0 6.73707e-06
20 *1610:A2 *325:14 5.54817e-06
21 *1669:A0 *1672:A0 0.0001871
22 *1785:D *1672:A0 0
23 *1785:RESET_B *1672:A0 0
24 *314:109 *1672:A0 0.000153068
*RES
1 *1609:X *325:14 29.0857 
2 *325:14 *1672:A0 38.5857 
3 *325:14 *1610:B1 13.8 
*END

*D_NET *326 0.0015023
*CONN
*I *1615:B2 I *D sky130_fd_sc_hd__o221ai_1
*I *1611:Y O *D sky130_fd_sc_hd__a21oi_1
*CAP
1 *1615:B2 0.000525981
2 *1611:Y 0.000525981
3 *1615:B2 *1499:B 7.13481e-06
4 *1615:B2 *1614:A1_N 9.68931e-05
5 *1615:B2 *1614:A2_N 2.95726e-05
6 *1615:B2 *1616:A1 0
7 *1615:B2 *1616:C1 3.57366e-05
8 *1615:B2 *469:70 9.41642e-05
9 *1615:B1 *1615:B2 7.83659e-05
10 *149:43 *1615:B2 3.72997e-05
11 *226:14 *1615:B2 7.11713e-05
*RES
1 *1611:Y *1615:B2 35.1357 
*END

*D_NET *327 0.00192532
*CONN
*I *1614:A1_N I *D sky130_fd_sc_hd__a2bb2o_1
*I *1612:X O *D sky130_fd_sc_hd__and3_1
*CAP
1 *1614:A1_N 0.000370673
2 *1612:X 0.000370673
3 *1614:A1_N *1614:A2_N 0.000202457
4 *1499:C *1614:A1_N 2.22043e-05
5 *1500:A *1614:A1_N 2.14757e-05
6 *1612:B *1614:A1_N 0.000119533
7 *1614:B1 *1614:A1_N 9.25014e-06
8 *1615:B2 *1614:A1_N 9.68931e-05
9 *149:43 *1614:A1_N 0.00025992
10 *153:27 *1614:A1_N 4.038e-06
11 *213:8 *1614:A1_N 0.000305404
12 *222:21 *1614:A1_N 0.0001428
*RES
1 *1612:X *1614:A1_N 37.1714 
*END

*D_NET *328 0.00137571
*CONN
*I *1614:A2_N I *D sky130_fd_sc_hd__a2bb2o_1
*I *1613:Y O *D sky130_fd_sc_hd__nor2_1
*CAP
1 *1614:A2_N 0.000229248
2 *1613:Y 0.000229248
3 *1482:A *1614:A2_N 0.000136733
4 *1499:C *1614:A2_N 1.90936e-05
5 *1500:A *1614:A2_N 0.000139485
6 *1501:A2 *1614:A2_N 1.00733e-05
7 *1613:B *1614:A2_N 7.02155e-05
8 *1614:A1_N *1614:A2_N 0.000202457
9 *1615:B2 *1614:A2_N 2.95726e-05
10 *153:27 *1614:A2_N 0.000182902
11 *222:21 *1614:A2_N 2.95642e-05
12 *226:14 *1614:A2_N 9.71197e-05
*RES
1 *1613:Y *1614:A2_N 34.1179 
*END

*D_NET *329 0.000572958
*CONN
*I *1615:C1 I *D sky130_fd_sc_hd__o221ai_1
*I *1614:X O *D sky130_fd_sc_hd__a2bb2o_1
*CAP
1 *1615:C1 0.000132574
2 *1614:X 0.000132574
3 *173:30 *1615:C1 0.000154762
4 *254:63 *1615:C1 0.000153047
*RES
1 *1614:X *1615:C1 30.4929 
*END

*D_NET *330 0.000584506
*CONN
*I *1616:C1 I *D sky130_fd_sc_hd__o211ai_1
*I *1615:Y O *D sky130_fd_sc_hd__o221ai_1
*CAP
1 *1616:C1 9.9334e-05
2 *1615:Y 9.9334e-05
3 *1616:C1 *1616:A1 7.12246e-05
4 *1616:C1 *331:8 2.66753e-05
5 *1615:A1 *1616:C1 5.49544e-05
6 *1615:A2 *1616:C1 0.000142023
7 *1615:B2 *1616:C1 3.57366e-05
8 *1616:B1 *1616:C1 5.52238e-05
*RES
1 *1615:Y *1616:C1 22.0286 
*END

*D_NET *331 0.00689935
*CONN
*I *1674:A1_N I *D sky130_fd_sc_hd__a2bb2o_1
*I *1617:B1_N I *D sky130_fd_sc_hd__a21bo_1
*I *1616:Y O *D sky130_fd_sc_hd__o211ai_1
*CAP
1 *1674:A1_N 0.000894359
2 *1617:B1_N 0.000423921
3 *1616:Y 0.0012275
4 *331:8 0.00254578
5 *1617:B1_N *1675:A1 6.15171e-05
6 *1617:B1_N *360:132 0
7 *1617:B1_N *391:18 0.000250754
8 *1674:A1_N *1674:A2_N 0.00047577
9 *1674:A1_N *1813:CLK 2.86767e-05
10 *1674:A1_N *360:132 0
11 *1674:A1_N *360:164 1.40322e-05
12 *1674:A1_N *382:53 2.2549e-05
13 *1674:A1_N *391:18 0.000155483
14 *331:8 *1616:A1 0.00017947
15 *331:8 *1733:A 2.44318e-05
16 *331:8 *383:48 0.000151061
17 *331:8 *481:37 9.05515e-05
18 *1615:A1 *331:8 2.84109e-05
19 *1616:C1 *331:8 2.66753e-05
20 *1789:RESET_B *331:8 0.00021984
21 *1808:D *1617:B1_N 3.06878e-06
22 *1813:D *1674:A1_N 7.54868e-05
*RES
1 *1616:Y *331:8 29.1214 
2 *331:8 *1617:B1_N 23.2643 
3 *331:8 *1674:A1_N 27.5321 
*END

*D_NET *332 0.000236668
*CONN
*I *1620:B1 I *D sky130_fd_sc_hd__a32o_1
*I *1618:X O *D sky130_fd_sc_hd__o22a_1
*CAP
1 *1620:B1 3.7828e-05
2 *1618:X 3.7828e-05
3 *1620:B1 *1620:A1 7.842e-05
4 *1620:B1 *1621:B1 1.65705e-05
5 *1620:B1 *339:61 2.42516e-05
6 *1620:B1 *468:53 4.17702e-05
*RES
1 *1618:X *1620:B1 19.7518 
*END

*D_NET *333 0.000678016
*CONN
*I *1620:B2 I *D sky130_fd_sc_hd__a32o_1
*I *1619:X O *D sky130_fd_sc_hd__a221o_1
*CAP
1 *1620:B2 0.000152702
2 *1619:X 0.000152702
3 *1620:B2 *1621:B1 0.000100823
4 *1619:A1 *1620:B2 0.000125724
5 *1619:C1 *1620:B2 0.000136951
6 *254:48 *1620:B2 9.11365e-06
*RES
1 *1619:X *1620:B2 30.6 
*END

*D_NET *334 0.0055854
*CONN
*I *1621:B1 I *D sky130_fd_sc_hd__a22o_1
*I *1675:A0 I *D sky130_fd_sc_hd__mux2_1
*I *1620:X O *D sky130_fd_sc_hd__a32o_1
*CAP
1 *1621:B1 0.000796774
2 *1675:A0 0.000622804
3 *1620:X 0
4 *334:4 0.00141958
5 *1621:B1 *1620:A1 2.14318e-05
6 *1621:B1 *1624:B1 0
7 *1621:B1 *1625:B1 0.000103253
8 *1621:B1 *338:10 5.26091e-05
9 *1621:B1 *339:61 0.000267974
10 *1621:B1 *461:14 3.3151e-05
11 *1675:A0 *1675:A1 0.000657687
12 *1675:A0 *1675:S 0.000309018
13 *1675:A0 *339:61 0.000318718
14 *1675:A0 *360:113 0.000313647
15 *1619:A1 *1621:B1 3.3728e-05
16 *1620:A2 *1621:B1 4.67875e-05
17 *1620:B1 *1621:B1 1.65705e-05
18 *1620:B2 *1621:B1 0.000100823
19 *1625:A3 *1621:B1 7.66515e-05
20 *149:43 *1621:B1 0
21 *163:49 *1621:B1 2.06741e-05
22 *163:51 *1621:B1 5.80706e-06
23 *220:10 *1621:B1 0.000262941
24 *221:10 *1621:B1 0
25 *254:48 *1621:B1 0.000104768
*RES
1 *1620:X *334:4 9.3 
2 *334:4 *1675:A0 25.4429 
3 *334:4 *1621:B1 34.9071 
*END

*D_NET *335 0.00216939
*CONN
*I *1623:A3 I *D sky130_fd_sc_hd__o32a_1
*I *1624:B1 I *D sky130_fd_sc_hd__o21ai_1
*I *1622:X O *D sky130_fd_sc_hd__and2b_1
*CAP
1 *1623:A3 0
2 *1624:B1 0.000199771
3 *1622:X 8.65032e-05
4 *335:6 0.000286274
5 *1624:B1 *1623:A1 0.000224168
6 *1624:B1 *1625:B2 5.71472e-05
7 *1624:B1 *461:14 2.61337e-05
8 *1624:B1 *461:27 1.18064e-05
9 *1624:B1 *461:33 1.24368e-05
10 *1624:B1 *467:31 5.52238e-05
11 *1624:B1 *480:33 0.000233717
12 *335:6 *480:33 8.86413e-05
13 *1492:C *335:6 5.33005e-05
14 *1621:B1 *1624:B1 0
15 *1622:A_N *335:6 5.52238e-05
16 *1623:B1 *335:6 5.52302e-05
17 *1625:A2 *1624:B1 0.000148196
18 *1625:A3 *1624:B1 0.000170654
19 *217:10 *1624:B1 3.18676e-05
20 *217:10 *335:6 0.00012113
21 *217:16 *1624:B1 2.44318e-05
22 *219:6 *335:6 4.18895e-05
23 *219:16 *335:6 0.000185643
*RES
1 *1622:X *335:6 13.1214 
2 *335:6 *1624:B1 24.6929 
3 *335:6 *1623:A3 9.3 
*END

*D_NET *336 0.000515813
*CONN
*I *1625:B1 I *D sky130_fd_sc_hd__a32o_1
*I *1623:X O *D sky130_fd_sc_hd__o32a_1
*CAP
1 *1625:B1 0.000145378
2 *1623:X 0.000145378
3 *1625:B1 *1488:A 2.57162e-05
4 *1621:B1 *1625:B1 0.000103253
5 *217:16 *1625:B1 9.60875e-05
6 *221:10 *1625:B1 0
*RES
1 *1623:X *1625:B1 30.1268 
*END

*D_NET *337 0.000851491
*CONN
*I *1625:B2 I *D sky130_fd_sc_hd__a32o_1
*I *1624:Y O *D sky130_fd_sc_hd__o21ai_1
*CAP
1 *1625:B2 0.000131694
2 *1624:Y 0.000131694
3 *1625:B2 *1488:A 7.32955e-05
4 *1625:B2 *338:10 0.000268583
5 *1625:B2 *467:31 0.000189078
6 *1624:B1 *1625:B2 5.71472e-05
*RES
1 *1624:Y *1625:B2 22.85 
*END

*D_NET *338 0.00939841
*CONN
*I *1626:B1 I *D sky130_fd_sc_hd__a22o_1
*I *1677:A0 I *D sky130_fd_sc_hd__mux2_1
*I *1625:X O *D sky130_fd_sc_hd__a32o_1
*CAP
1 *1626:B1 0
2 *1677:A0 6.17731e-05
3 *1625:X 0.000599664
4 *338:32 0.00210782
5 *338:10 0.00264571
6 *1677:A0 *1731:A 0.000187612
7 *338:10 *1832:A 2.37005e-05
8 *338:10 *339:61 0
9 *338:32 *1649:B1 0.000322745
10 *338:32 *1677:A1 0
11 *338:32 *1687:A0 0.000100931
12 *338:32 *1782:CLK 0
13 *338:32 *360:41 0
14 *338:32 *383:86 4.23557e-05
15 *338:32 *488:16 0.000512464
16 *1621:B1 *338:10 5.26091e-05
17 *1625:B2 *338:10 0.000268583
18 *1654:A2 *338:32 0.00012249
19 *1787:D *1677:A0 4.85049e-06
20 *1796:D *338:32 5.50052e-05
21 *163:51 *338:10 0
22 *259:141 *338:32 0.000134981
23 *266:51 *338:32 0.000176312
24 *266:67 *338:32 0.000571269
25 *303:63 *338:32 0.00010776
26 *314:40 *338:10 0.000285209
27 *314:48 *338:10 5.54817e-06
28 *314:48 *338:32 4.04224e-05
29 *314:65 *338:32 0.000146254
30 *314:109 *338:32 0.000822333
*RES
1 *1625:X *338:10 25.3179 
2 *338:10 *338:32 47.8929 
3 *338:32 *1677:A0 15.5679 
4 *338:10 *1626:B1 13.8 
*END

*D_NET *339 0.0321264
*CONN
*I *1628:S I *D sky130_fd_sc_hd__mux2_1
*I *1636:S I *D sky130_fd_sc_hd__mux2_1
*I *1701:B1 I *D sky130_fd_sc_hd__o211ai_1
*I *1703:C1 I *D sky130_fd_sc_hd__o211ai_1
*I *1630:S I *D sky130_fd_sc_hd__mux2_1
*I *1640:S I *D sky130_fd_sc_hd__mux2_1
*I *1642:S I *D sky130_fd_sc_hd__mux2_1
*I *1632:S I *D sky130_fd_sc_hd__mux2_1
*I *1634:S I *D sky130_fd_sc_hd__mux2_1
*I *1638:S I *D sky130_fd_sc_hd__mux2_1
*I *1627:Y O *D sky130_fd_sc_hd__nand2_8
*CAP
1 *1628:S 0.000280883
2 *1636:S 0.000836282
3 *1701:B1 1.69531e-05
4 *1703:C1 0
5 *1630:S 0.000669992
6 *1640:S 0.000187097
7 *1642:S 0
8 *1632:S 0.000453797
9 *1634:S 0.000138033
10 *1638:S 0.00016317
11 *1627:Y 3.31341e-05
12 *339:154 0.00158442
13 *339:139 0.00086559
14 *339:69 0.00116077
15 *339:61 0.00237323
16 *339:26 0.00283635
17 *339:22 0.00308539
18 *339:20 0.0034062
19 *339:16 0.00243708
20 *339:10 0.000531227
21 *339:6 0.000555453
22 *1628:S *1628:A0 0
23 *1628:S *381:90 5.31541e-05
24 *1628:S *415:27 0
25 *1628:S *483:12 2.36784e-05
26 *1628:S *483:32 0.000315165
27 *1630:S *1705:A1 0.000310071
28 *1630:S *381:116 9.77264e-06
29 *1630:S *482:14 3.3283e-05
30 *1630:S *482:38 0.000462675
31 *1632:S *1632:A1 1.41706e-05
32 *1632:S *1747:A 3.34366e-05
33 *1632:S *1894:A 2.89016e-05
34 *1632:S *384:12 2.31791e-05
35 *1632:S *384:14 0.000762697
36 *1634:S *1634:A1 9.90367e-05
37 *1634:S *1635:A 0
38 *1634:S *1747:A 0.000148911
39 *1634:S *387:125 5.52302e-05
40 *1636:S *1636:A1 5.7661e-06
41 *1636:S *390:70 0.000253465
42 *1636:S *479:12 3.98401e-05
43 *1638:S *1638:A0 0
44 *1638:S *1639:A 3.2923e-05
45 *1638:S *1691:A0 2.84109e-05
46 *1638:S *387:29 5.65955e-05
47 *1640:S *486:35 0
48 *1701:B1 *1697:A 5.33005e-05
49 *1701:B1 *1701:A1 5.33005e-05
50 *339:10 *494:23 2.83284e-06
51 *339:10 *494:32 4.856e-05
52 *339:10 *494:43 1.50179e-05
53 *339:16 *1858:A 0
54 *339:16 *359:20 0
55 *339:16 *361:28 4.6025e-06
56 *339:16 *388:163 0
57 *339:16 *494:23 3.43988e-06
58 *339:20 *1689:A1 2.79092e-05
59 *339:20 *1718:A 0
60 *339:20 *1722:A 0
61 *339:20 *359:20 0
62 *339:20 *359:22 0
63 *339:20 *381:116 0
64 *339:20 *388:163 0
65 *339:20 *470:12 0
66 *339:22 *1689:A1 5.41494e-05
67 *339:26 *1641:A 0.000617818
68 *339:26 *1744:A 9.03252e-05
69 *339:26 *384:73 0.000226016
70 *339:26 *387:10 9.84729e-05
71 *339:26 *486:35 8.25843e-06
72 *339:61 *1822:A 0
73 *339:61 *360:113 6.75007e-05
74 *339:61 *391:18 0.000126439
75 *339:61 *468:53 3.06972e-05
76 *339:69 *1643:A 6.83046e-05
77 *339:69 *384:43 0.000612348
78 *339:69 *391:18 9.90431e-05
79 *339:139 *1700:A 7.27365e-05
80 *339:139 *1701:A2 0.000403635
81 *339:139 *1749:A 0.000317214
82 *339:139 *377:6 0.000141729
83 *339:139 *381:100 6.05161e-06
84 *339:139 *381:110 2.59355e-05
85 *339:139 *400:22 0.000103086
86 *339:154 *1665:A 0.000157443
87 *339:154 *1749:A 0.000415056
88 *339:154 *1769:CLK 0
89 *339:154 *381:90 0.000188713
90 *339:154 *415:27 0
91 *339:154 *497:8 0.000402981
92 product[9] *1632:S 0
93 *1492:C *339:61 0.000168939
94 *1618:B2 *339:61 5.03772e-05
95 *1620:B1 *339:61 2.42516e-05
96 *1621:B1 *339:61 0.000267974
97 *1623:B1 *339:61 5.33005e-05
98 *1675:A0 *339:61 0.000318718
99 *1700:B *339:6 1.83053e-05
100 *1700:B *339:139 4.03248e-05
101 *1703:A2 *339:10 5.65164e-05
102 *1703:A2 *339:16 4.73045e-05
103 *1767:RESET_B *339:16 5.56943e-05
104 *1772:D *339:20 2.90582e-05
105 *1799:RESET_B *339:26 5.50052e-05
106 *1801:RESET_B *1636:S 5.71472e-05
107 *1805:D *1628:S 6.91157e-05
108 *1805:D *1636:S 9.41805e-05
109 *1805:D *339:154 8.15095e-05
110 *1805:RESET_B *339:154 0
111 *148:45 *339:61 9.0145e-05
112 *152:29 *339:61 0.000219711
113 *153:27 *339:61 0.000102197
114 *207:10 *339:61 9.25014e-06
115 *221:10 *339:61 0
116 *221:23 *339:61 3.77553e-05
117 *256:72 *339:10 2.42082e-05
118 *263:43 *339:61 0.000181041
119 *266:28 *1640:S 0.000361014
120 *314:29 *339:61 0.000664963
121 *314:40 *1638:S 0
122 *314:40 *339:61 0
123 *338:10 *339:61 0
*RES
1 *1627:Y *339:6 9.83571 
2 *339:6 *339:10 7.66071 
3 *339:10 *339:16 6.66071 
4 *339:16 *339:20 28.6071 
5 *339:20 *339:22 29.6964 
6 *339:22 *339:26 21.0536 
7 *339:26 *1638:S 16.9429 
8 *339:26 *339:61 46.7857 
9 *339:61 *339:69 14.9286 
10 *339:69 *1634:S 17.1214 
11 *339:69 *1632:S 24.7821 
12 *339:61 *1642:S 9.3 
13 *339:22 *1640:S 22.9786 
14 *339:16 *1630:S 24.3536 
15 *339:10 *1703:C1 13.8 
16 *339:6 *339:139 14.875 
17 *339:139 *1701:B1 14.3357 
18 *339:139 *339:154 13.8393 
19 *339:154 *1636:S 25.8893 
20 *339:154 *1628:S 19.8893 
*END

*D_NET *340 0.000173695
*CONN
*I *1629:A I *D sky130_fd_sc_hd__clkbuf_1
*I *1628:X O *D sky130_fd_sc_hd__mux2_1
*CAP
1 *1629:A 5.8274e-05
2 *1628:X 5.8274e-05
3 *1629:A *483:12 0
4 *1629:A *483:32 5.71472e-05
*RES
1 *1628:X *1629:A 19.8679 
*END

*D_NET *341 0.000375985
*CONN
*I *1631:A I *D sky130_fd_sc_hd__clkbuf_1
*I *1630:X O *D sky130_fd_sc_hd__mux2_1
*CAP
1 *1631:A 0.000148813
2 *1630:X 0.000148813
3 *1631:A *1749:A 7.83587e-05
4 *1631:A *400:22 0
*RES
1 *1630:X *1631:A 30.2071 
*END

*D_NET *342 0.000579085
*CONN
*I *1633:A I *D sky130_fd_sc_hd__clkbuf_1
*I *1632:X O *D sky130_fd_sc_hd__mux2_1
*CAP
1 *1633:A 0.000236222
2 *1632:X 0.000236222
3 *1633:A *1632:A0 2.27416e-05
4 *1633:A *1632:A1 0
5 *1633:A *1803:CLK 0
6 *1633:A *384:12 0
7 *1803:D *1633:A 8.39e-05
*RES
1 *1632:X *1633:A 32.2071 
*END

*D_NET *343 0.000147386
*CONN
*I *1635:A I *D sky130_fd_sc_hd__clkbuf_1
*I *1634:X O *D sky130_fd_sc_hd__mux2_1
*CAP
1 *1635:A 5.7759e-05
2 *1634:X 5.7759e-05
3 *1635:A *1634:A0 3.18676e-05
4 *1634:S *1635:A 0
*RES
1 *1634:X *1635:A 19.8679 
*END

*D_NET *344 0.000444912
*CONN
*I *1637:A I *D sky130_fd_sc_hd__clkbuf_1
*I *1636:X O *D sky130_fd_sc_hd__mux2_1
*CAP
1 *1637:A 0.000123031
2 *1636:X 0.000123031
3 *1637:A *359:16 4.25809e-05
4 *1637:A *479:20 3.05446e-05
5 *256:59 *1637:A 0.000125724
*RES
1 *1636:X *1637:A 30.1893 
*END

*D_NET *345 0.00098471
*CONN
*I *1639:A I *D sky130_fd_sc_hd__clkbuf_1
*I *1638:X O *D sky130_fd_sc_hd__mux2_1
*CAP
1 *1639:A 0.000233244
2 *1638:X 0.000233244
3 *1639:A *1638:A0 5.09908e-05
4 *1639:A *1691:A0 0.000185403
5 *1639:A *387:29 0.000152207
6 *1638:S *1639:A 3.2923e-05
7 *1800:D *1639:A 9.66977e-05
*RES
1 *1638:X *1639:A 33.2964 
*END

*D_NET *346 0.0018145
*CONN
*I *1641:A I *D sky130_fd_sc_hd__clkbuf_1
*I *1640:X O *D sky130_fd_sc_hd__mux2_1
*CAP
1 *1641:A 0.000313073
2 *1640:X 0.000313073
3 *1641:A *1744:A 8.17713e-05
4 *1641:A *1823:A 0
5 *1641:A *486:35 0.000488766
6 *339:26 *1641:A 0.000617818
*RES
1 *1640:X *1641:A 37.975 
*END

*D_NET *347 0.000171804
*CONN
*I *1643:A I *D sky130_fd_sc_hd__clkbuf_1
*I *1642:X O *D sky130_fd_sc_hd__mux2_1
*CAP
1 *1643:A 5.17496e-05
2 *1642:X 5.17496e-05
3 *339:69 *1643:A 6.83046e-05
*RES
1 *1642:X *1643:A 19.8679 
*END

*D_NET *348 0.000487542
*CONN
*I *1645:B1 I *D sky130_fd_sc_hd__a2bb2o_1
*I *1644:Y O *D sky130_fd_sc_hd__o21ai_1
*CAP
1 *1645:B1 0.000118895
2 *1644:Y 0.000118895
3 *1645:B1 *1645:B2 0.000101341
4 *1625:A2 *1645:B1 9.96264e-05
5 *1644:A1 *1645:B1 4.87854e-05
*RES
1 *1644:Y *1645:B1 29.8857 
*END

*D_NET *349 0.0132636
*CONN
*I *1679:A0 I *D sky130_fd_sc_hd__mux2_1
*I *1647:B1 I *D sky130_fd_sc_hd__a221o_1
*I *1645:X O *D sky130_fd_sc_hd__a2bb2o_1
*CAP
1 *1679:A0 0.00211172
2 *1647:B1 0.000258628
3 *1645:X 0.00188107
4 *349:16 0.00425142
5 *1647:B1 *1647:C1 0.000159153
6 *1647:B1 *1790:CLK 2.07809e-05
7 *1679:A0 *1438:A1 0.000820916
8 *1679:A0 *1438:A4 7.69435e-05
9 *1679:A0 *1562:C_N 0.000217618
10 *1679:A0 *1577:C_N 6.53781e-05
11 *1679:A0 *1781:CLK 0
12 *1679:A0 *1824:A 7.62869e-06
13 *1679:A0 *384:108 0
14 *349:16 *383:48 0.000160414
15 *1482:B *349:16 0
16 *1514:B *1679:A0 0.000144132
17 *1516:B *1679:A0 5.59369e-05
18 *1559:B2 *1679:A0 3.56119e-05
19 *1562:A *1679:A0 0
20 *1565:A2 *1679:A0 0.000369549
21 *1569:A3 *1679:A0 7.69713e-05
22 *1569:B1 *1679:A0 7.30607e-05
23 *1616:B1 *1679:A0 0.00109127
24 *1616:B1 *349:16 0.000434495
25 *1645:A1_N *349:16 0.000106582
26 *149:70 *1679:A0 0.000240423
27 *149:104 *1679:A0 1.13495e-05
28 *153:41 *1647:B1 9.21418e-06
29 *162:126 *1679:A0 5.00087e-06
30 *163:49 *1647:B1 4.64983e-05
31 *163:49 *1679:A0 3.61654e-05
32 *163:49 *349:16 0.000453741
33 *263:43 *1647:B1 2.06178e-05
34 *280:12 *1679:A0 2.12933e-05
*RES
1 *1645:X *349:16 26.6991 
2 *349:16 *1647:B1 21.6437 
3 *349:16 *1679:A0 44.5179 
*END

*D_NET *350 0.0066089
*CONN
*I *1647:C1 I *D sky130_fd_sc_hd__a221o_1
*I *1646:X O *D sky130_fd_sc_hd__and3_1
*CAP
1 *1647:C1 0.00255595
2 *1646:X 0.00255595
3 *1647:C1 *1648:A1 0.000623377
4 *1647:C1 *386:14 0
5 *1647:C1 *400:34 9.78579e-05
6 *1450:B1 *1647:C1 0.000158557
7 *1581:A2 *1647:C1 2.22043e-05
8 *1647:B1 *1647:C1 0.000159153
9 *1659:A3 *1647:C1 0
10 *153:41 *1647:C1 2.06178e-05
11 *163:49 *1647:C1 0.00011716
12 *174:14 *1647:C1 0.000251256
13 *174:27 *1647:C1 4.68271e-05
14 *193:71 *1647:C1 0
15 *266:123 *1647:C1 0
*RES
1 *1646:X *1647:C1 42.689 
*END

*D_NET *351 0.00165652
*CONN
*I *1649:B1 I *D sky130_fd_sc_hd__a31o_1
*I *1648:X O *D sky130_fd_sc_hd__a22o_1
*CAP
1 *1649:B1 0.000240649
2 *1648:X 0.000240649
3 *1649:B1 *1740:A 0.000304076
4 *1657:A2 *1649:B1 9.07388e-05
5 *1657:A3 *1649:B1 9.65834e-05
6 *1792:D *1649:B1 1.39841e-05
7 *266:51 *1649:B1 5.33005e-05
8 *303:20 *1649:B1 0.000293795
9 *338:32 *1649:B1 0.000322745
*RES
1 *1648:X *1649:B1 35.4929 
*END

*D_NET *352 0.00207577
*CONN
*I *1651:B1 I *D sky130_fd_sc_hd__a31o_1
*I *1650:X O *D sky130_fd_sc_hd__a22o_1
*CAP
1 *1651:B1 0.000619972
2 *1650:X 0.000619972
3 *1651:B1 *1650:A1 0.000143633
4 *1651:B1 *1652:A1 1.97617e-05
5 *1651:B1 *1793:CLK 0.000230475
6 *1651:B1 *383:48 2.37944e-05
7 *1651:B1 *396:16 0
8 *1651:B1 *489:10 7.74068e-05
9 *1651:B1 *489:18 2.59355e-05
10 *1651:B1 *489:31 6.62144e-05
11 *1650:B1 *1651:B1 1.62025e-05
12 *1651:A2 *1651:B1 0
13 *1651:A3 *1651:B1 0.000232399
14 *1655:A2 *1651:B1 0
15 *1655:A3 *1651:B1 0
16 *1793:D *1651:B1 0
*RES
1 *1650:X *1651:B1 38.3857 
*END

*D_NET *353 0.000984547
*CONN
*I *1653:B1 I *D sky130_fd_sc_hd__a31o_1
*I *1652:X O *D sky130_fd_sc_hd__a22o_1
*CAP
1 *1653:B1 0.000273844
2 *1652:X 0.000273844
3 *1653:B1 *1638:A0 0.000332661
4 *1653:B1 *1650:A1 9.41642e-05
5 *1653:B1 *383:86 1.00332e-05
6 *1794:RESET_B *1653:B1 0
*RES
1 *1652:X *1653:B1 32.9214 
*END

*D_NET *354 0.00132784
*CONN
*I *1655:B1 I *D sky130_fd_sc_hd__a31o_1
*I *1654:X O *D sky130_fd_sc_hd__a22o_1
*CAP
1 *1655:B1 0.000363581
2 *1654:X 0.000363581
3 *1655:B1 *1654:A1 9.60875e-05
4 *1655:B1 *1654:B2 6.81869e-05
5 *1655:B1 *382:84 4.40008e-05
6 *1655:B1 *394:12 0.000312383
7 *314:65 *1655:B1 8.00245e-05
*RES
1 *1654:X *1655:B1 34.6714 
*END

*D_NET *355 0.00144715
*CONN
*I *1657:B1 I *D sky130_fd_sc_hd__a31o_1
*I *1656:X O *D sky130_fd_sc_hd__a22o_1
*CAP
1 *1657:B1 0.00032797
2 *1656:X 0.00032797
3 *1657:B1 *1657:A1 0.000305679
4 *1657:B1 *1740:A 3.92856e-05
5 *1657:B1 *486:18 0.000436694
6 *1657:A2 *1657:B1 9.54798e-06
*RES
1 *1656:X *1657:B1 34.2607 
*END

*D_NET *356 0.00469584
*CONN
*I *1659:B1 I *D sky130_fd_sc_hd__a31o_1
*I *1658:X O *D sky130_fd_sc_hd__a22o_1
*CAP
1 *1659:B1 0.000704339
2 *1658:X 0.000704339
3 *1578:A *1659:B1 5.49995e-05
4 *163:6 *1659:B1 0.000268828
5 *163:111 *1659:B1 0.000563224
6 *279:6 *1659:B1 0.000508219
7 *279:8 *1659:B1 0.00109742
8 *303:133 *1659:B1 0.000794477
*RES
1 *1658:X *1659:B1 39.6893 
*END

*D_NET *357 0.00183613
*CONN
*I *1661:B1 I *D sky130_fd_sc_hd__a31o_1
*I *1660:X O *D sky130_fd_sc_hd__a22o_1
*CAP
1 *1661:B1 0.000469642
2 *1660:X 0.000469642
3 *1661:B1 *1660:A1 1.18547e-05
4 *1661:B1 *1824:A 4.44301e-05
5 *1658:B1 *1661:B1 4.00349e-05
6 *1659:A3 *1661:B1 0.00032956
7 *1660:A2 *1661:B1 4.58194e-05
8 *1660:B1 *1661:B1 5.49489e-05
9 *1661:A3 *1661:B1 2.29917e-05
10 *160:35 *1661:B1 0.000175892
11 *238:10 *1661:B1 1.0993e-05
12 *266:123 *1661:B1 0.00011529
13 *278:10 *1661:B1 3.92812e-05
14 *303:133 *1661:B1 5.74499e-06
*RES
1 *1660:X *1661:B1 39.187 
*END

*D_NET *358 0.00230875
*CONN
*I *1895:A I *D sky130_fd_sc_hd__clkbuf_2
*I *1877:A I *D sky130_fd_sc_hd__clkbuf_1
*I *1662:Y O *D sky130_fd_sc_hd__nor4b_1
*CAP
1 *1895:A 0.000288882
2 *1877:A 0
3 *1662:Y 0.000382442
4 *358:14 0.000671324
5 *1895:A *1769:CLK 0.000198705
6 *1895:A *1773:CLK 0.000175519
7 *1895:A *381:90 0
8 *1895:A *384:143 7.19508e-05
9 *1895:A *483:32 2.45318e-05
10 *358:14 *1668:A3 4.15914e-05
11 *358:14 *1769:CLK 0
12 *358:14 *359:20 7.41432e-05
13 *358:14 *384:143 0.000103127
14 *1698:A2 *358:14 0.000148383
15 *1770:D *358:14 0.000128154
*RES
1 *1662:Y *358:14 26.9964 
2 *358:14 *1877:A 9.3 
3 *358:14 *1895:A 24.8714 
*END

*D_NET *359 0.0380863
*CONN
*I *1693:S I *D sky130_fd_sc_hd__mux2_1
*I *1685:S I *D sky130_fd_sc_hd__mux2_1
*I *1689:S I *D sky130_fd_sc_hd__mux2_1
*I *1683:S I *D sky130_fd_sc_hd__mux2_1
*I *1691:S I *D sky130_fd_sc_hd__mux2_1
*I *1664:A I *D sky130_fd_sc_hd__buf_4
*I *1687:S I *D sky130_fd_sc_hd__mux2_1
*I *1663:Y O *D sky130_fd_sc_hd__nand2_4
*CAP
1 *1693:S 0.000261661
2 *1685:S 0.000401024
3 *1689:S 7.51446e-05
4 *1683:S 3.32433e-05
5 *1691:S 0.000348194
6 *1664:A 0.000119864
7 *1687:S 0.000109522
8 *1663:Y 0.000133153
9 *359:95 0.00512378
10 *359:49 0.0030621
11 *359:32 0.00631379
12 *359:22 0.00386455
13 *359:20 0.00236834
14 *359:16 0.00269048
15 *359:8 0.00521259
16 *1664:A *360:12 9.83388e-05
17 *1683:S *1683:A1 1.58163e-05
18 *1685:S *1839:A 2.11419e-05
19 *1685:S *382:32 0
20 *1685:S *384:108 2.28077e-05
21 *1687:S *1687:A0 1.43288e-05
22 *1687:S *1687:A1 0.000122812
23 *1689:S *1776:CLK 0.000186669
24 *1691:S *1691:A0 1.76666e-05
25 *1691:S *1691:A1 5.49489e-05
26 *1691:S *360:12 2.70148e-05
27 *1691:S *360:113 0.00056952
28 *1693:S *381:14 0.000615444
29 *1693:S *385:26 0
30 *1693:S *389:90 0.000225307
31 *1693:S *391:18 0
32 *359:8 *1636:A0 0
33 *359:8 *1671:A1 0
34 *359:8 *381:73 3.17163e-05
35 *359:8 *420:29 3.34366e-05
36 *359:16 *1636:A0 0
37 *359:16 *1671:A1 0
38 *359:16 *384:143 0.00014285
39 *359:20 *1605:A1 4.15914e-05
40 *359:20 *1769:CLK 0
41 *359:20 *1770:CLK 0
42 *359:20 *388:122 0
43 *359:20 *388:139 0
44 *359:22 *1689:A0 0.000523364
45 *359:22 *1689:A1 2.56601e-05
46 *359:22 *1722:A 0.000411178
47 *359:22 *388:105 0
48 *359:22 *388:122 0
49 *359:32 *1648:A1 0.000301073
50 *359:32 *1649:A1 0
51 *359:32 *1687:A0 4.22135e-06
52 *359:32 *1689:A0 2.11419e-05
53 *359:32 *1722:A 1.94879e-05
54 *359:32 *477:12 0.000109812
55 *359:49 *1653:A1 0.000164334
56 *359:49 *360:24 0
57 *359:49 *360:113 1.01057e-05
58 *359:49 *382:72 0
59 *359:95 *384:108 0.000592446
60 *359:95 *384:135 0.000556965
61 *1549:A3 *359:95 0.00135637
62 *1594:A2 *359:95 4.18441e-05
63 *1605:A2 *359:20 9.3977e-05
64 *1616:B1 *359:95 2.35126e-05
65 *1637:A *359:16 4.25809e-05
66 *1696:A1 *359:20 9.59532e-06
67 *1698:A2 *359:20 8.49275e-05
68 *1703:A2 *359:20 8.55197e-05
69 *1770:D *359:20 6.97972e-05
70 *1772:D *359:20 0.000101178
71 *1810:D *359:20 0
72 *1810:RESET_B *359:20 9.56968e-05
73 *163:124 *359:16 0
74 *256:59 *359:16 0
75 *256:72 *359:20 0.00014602
76 *257:10 *359:20 7.80183e-05
77 *259:135 *359:32 0.000118413
78 *266:67 *1687:S 0
79 *266:67 *359:32 0
80 *278:123 *359:20 0.000350698
81 *278:125 *359:20 0.000215335
82 *321:23 *359:20 0
83 *339:16 *359:20 0
84 *339:20 *359:20 0
85 *339:20 *359:22 0
86 *358:14 *359:20 7.41432e-05
*RES
1 *1663:Y *359:8 16.2018 
2 *359:8 *359:16 19.5982 
3 *359:16 *359:20 44.7857 
4 *359:20 *359:22 7.71429 
5 *359:22 *359:32 18.3957 
6 *359:32 *1687:S 15.8982 
7 *359:32 *359:49 11.9876 
8 *359:49 *1664:A 15.9786 
9 *359:49 *1691:S 22.8179 
10 *359:22 *1683:S 14.3357 
11 *359:20 *1689:S 15.5679 
12 *359:8 *359:95 13.7625 
13 *359:95 *1685:S 18.1103 
14 *359:95 *1693:S 25.0761 
*END

*D_NET *360 0.0457427
*CONN
*I *1679:S I *D sky130_fd_sc_hd__mux2_1
*I *1681:S I *D sky130_fd_sc_hd__mux2_1
*I *1674:B1 I *D sky130_fd_sc_hd__a2bb2o_1
*I *1667:A1 I *D sky130_fd_sc_hd__o21ai_1
*I *1675:S I *D sky130_fd_sc_hd__mux2_1
*I *1669:S I *D sky130_fd_sc_hd__mux2_1
*I *1671:A1 I *D sky130_fd_sc_hd__a22o_1
*I *1668:B1 I *D sky130_fd_sc_hd__a32o_1
*I *1672:S I *D sky130_fd_sc_hd__mux2_1
*I *1677:S I *D sky130_fd_sc_hd__mux2_1
*I *1664:X O *D sky130_fd_sc_hd__buf_4
*CAP
1 *1679:S 0.000277657
2 *1681:S 0.00025821
3 *1674:B1 0.000130241
4 *1667:A1 7.03456e-05
5 *1675:S 0.000148906
6 *1669:S 0
7 *1671:A1 0.000963172
8 *1668:B1 0.000189598
9 *1672:S 0.000369415
10 *1677:S 0
11 *1664:X 0.000129729
12 *360:168 0.0012184
13 *360:164 0.00258216
14 *360:147 0.00217668
15 *360:132 0.00109005
16 *360:113 0.00217558
17 *360:74 0.00655552
18 *360:45 0.00583267
19 *360:41 0.000449665
20 *360:24 0.00342263
21 *360:12 0.00431698
22 *1667:A1 *1674:A2_N 6.05161e-06
23 *1668:B1 *1668:A3 3.14176e-05
24 *1668:B1 *1668:B2 0.00031344
25 *1671:A1 *1668:B2 0.000252243
26 *1671:A1 *1671:A2 3.49456e-06
27 *1671:A1 *381:73 8.34831e-05
28 *1672:S *1672:A1 5.71472e-05
29 *1672:S *1673:A 0.000144773
30 *1672:S *1731:A 0
31 *1672:S *1850:A 0
32 *1672:S *382:117 0.000495276
33 *1674:B1 *1674:A2_N 0.000123827
34 *1679:S *1679:A1 4.1219e-05
35 *1679:S *1680:A 5.35386e-05
36 *1679:S *1681:A1 1.84865e-05
37 *1681:S *1680:A 2.56694e-05
38 *1681:S *1781:CLK 0
39 *1681:S *1891:A 0.000102269
40 *360:12 *1795:CLK 5.76694e-05
41 *360:24 *1653:A1 0.000198271
42 *360:24 *1777:CLK 0.000100388
43 *360:24 *1793:CLK 1.69252e-05
44 *360:24 *1838:A 0
45 *360:24 *1893:A 0
46 *360:24 *382:72 0
47 *360:24 *382:84 0.000367563
48 *360:24 *382:92 0.00185999
49 *360:24 *394:12 0.000162575
50 *360:24 *408:26 0.000593777
51 *360:41 *1669:A1 9.90367e-05
52 *360:41 *1670:A 0.000181673
53 *360:41 *1677:A1 4.50796e-05
54 *360:41 *1838:A 0.00018624
55 *360:74 *1649:A1 4.70487e-05
56 *360:74 *1653:A1 2.74588e-05
57 *360:74 *408:26 0
58 *360:74 *472:54 0.000102535
59 *360:113 *1642:A1 8.00806e-05
60 *360:113 *382:72 0
61 *360:113 *387:76 0.000311236
62 *360:113 *387:93 0.000314717
63 *360:113 *387:115 0
64 *360:113 *391:18 2.46999e-05
65 *360:113 *409:14 0
66 *360:132 *1674:A2_N 0.000107404
67 *360:132 *1789:CLK 0
68 *360:132 *382:53 0
69 *360:132 *382:72 0.000134737
70 *360:132 *391:18 0
71 *360:147 *1674:A2_N 0.000100823
72 *360:147 *1674:B2 0
73 *360:147 *1813:CLK 5.66157e-05
74 *360:147 *382:53 0
75 *360:147 *391:18 0
76 *360:164 *1583:A1_N 7.83366e-05
77 *360:164 *1659:A1 0.00107143
78 *360:164 *1674:A2_N 5.74499e-06
79 *360:164 *1813:CLK 5.20751e-05
80 *360:164 *1831:A 7.39637e-05
81 *360:164 *383:25 0.000317687
82 *360:164 *474:25 0
83 *360:164 *475:8 4.98056e-05
84 *360:164 *475:14 8.64788e-05
85 *360:168 *1681:A1 3.01245e-06
86 *360:168 *1891:A 6.48098e-05
87 *360:168 *416:6 3.4689e-05
88 *1578:B *360:164 0
89 *1583:B2 *360:164 8.91963e-06
90 *1617:B1_N *360:132 0
91 *1664:A *360:12 9.83388e-05
92 *1667:A2 *1667:A1 1.97695e-05
93 *1671:B1 *1671:A1 3.87535e-05
94 *1672:A0 *360:41 0.000331497
95 *1674:A1_N *360:132 0
96 *1674:A1_N *360:164 1.40322e-05
97 *1675:A0 *1675:S 0.000309018
98 *1675:A0 *360:113 0.000313647
99 *1691:S *360:12 2.70148e-05
100 *1691:S *360:113 0.00056952
101 *1771:RESET_B *1671:A1 9.38161e-05
102 *1780:D *360:168 3.69047e-06
103 *1785:D *1672:S 3.48705e-05
104 *1787:RESET_B *1672:S 0
105 *1789:D *360:132 9.62302e-05
106 *1795:D *360:24 3.21968e-05
107 *1795:D *360:113 5.54204e-05
108 *1798:RESET_B *360:113 9.06726e-05
109 *1808:D *360:132 6.66813e-05
110 *1813:RESET_B *360:164 0.000176226
111 *3:23 *360:24 0.000633129
112 *256:59 *1671:A1 0.000420053
113 *258:16 *1671:A1 0.000790095
114 *258:16 *360:74 4.19624e-06
115 *259:98 *1671:A1 0
116 *259:98 *360:74 9.87983e-06
117 *303:145 *360:164 0.000101266
118 *314:73 *360:24 0.000132625
119 *314:109 *360:41 6.89735e-05
120 *338:32 *360:41 0
121 *339:61 *360:113 6.75007e-05
122 *359:8 *1671:A1 0
123 *359:16 *1671:A1 0
124 *359:49 *360:24 0
125 *359:49 *360:113 1.01057e-05
*RES
1 *1664:X *360:12 16.425 
2 *360:12 *360:24 21.6515 
3 *360:24 *1677:S 13.8 
4 *360:24 *360:41 14.3036 
5 *360:41 *360:45 5.38393 
6 *360:45 *1672:S 22.6661 
7 *360:45 *360:74 28.2179 
8 *360:74 *1668:B1 12.9161 
9 *360:74 *1671:A1 40.6571 
10 *360:41 *1669:S 9.3 
11 *360:12 *360:113 33.0536 
12 *360:113 *1675:S 12.3 
13 *360:113 *360:132 21.4286 
14 *360:132 *1667:A1 15.0679 
15 *360:132 *360:147 7.05357 
16 *360:147 *1674:B1 12.2107 
17 *360:147 *360:164 49.125 
18 *360:164 *360:168 8.66071 
19 *360:168 *1681:S 22.7464 
20 *360:168 *1679:S 14.7821 
*END

*D_NET *361 0.0160696
*CONN
*I *1674:A2_N I *D sky130_fd_sc_hd__a2bb2o_1
*I *1666:A2 I *D sky130_fd_sc_hd__o21ai_1
*I *1665:X O *D sky130_fd_sc_hd__or4b_2
*CAP
1 *1674:A2_N 0.000376663
2 *1666:A2 0
3 *1665:X 0.00263559
4 *361:42 0.00241879
5 *361:28 0.00467771
6 *1674:A2_N *1667:B1 0.000110198
7 *1674:A2_N *1813:CLK 6.05161e-06
8 *1674:A2_N *382:53 2.59355e-05
9 *361:28 *1662:D_N 5.80706e-06
10 *361:28 *1697:A 1.79203e-05
11 *361:28 *1704:B1 0.000135028
12 *361:28 *482:38 0.00012401
13 *361:28 *494:23 4.04359e-05
14 *361:28 *494:32 5.41797e-05
15 *361:28 *494:43 0.000184645
16 *361:42 *1587:B2 0.00027018
17 *361:42 *1666:B1 0.00069962
18 *361:42 *1667:B1 2.12005e-05
19 *361:42 *1790:CLK 0.000575877
20 *361:42 *383:156 0.000124642
21 *361:42 *482:44 6.98439e-06
22 *361:42 *482:48 0.000227381
23 *1441:B *361:28 0
24 *1450:B1 *361:28 8.22793e-06
25 *1467:A2 *361:28 0.000140077
26 *1472:B1 *361:42 9.22616e-06
27 *1472:B2 *361:42 0.000399841
28 *1474:A1 *361:42 4.18069e-05
29 *1528:B *361:42 0.000227263
30 *1666:A1 *361:42 1.02936e-05
31 *1667:A1 *1674:A2_N 6.05161e-06
32 *1667:A2 *1674:A2_N 3.18747e-05
33 *1674:A1_N *1674:A2_N 0.00047577
34 *1674:B1 *1674:A2_N 0.000123827
35 *1790:D *361:42 9.7659e-05
36 *172:48 *361:42 8.3882e-05
37 *173:20 *361:42 0.000838989
38 *173:30 *361:42 0.000229908
39 *174:27 *361:28 0.000326498
40 *255:8 *361:42 4.58194e-05
41 *306:12 *361:42 1.51489e-05
42 *339:16 *361:28 4.6025e-06
43 *360:132 *1674:A2_N 0.000107404
44 *360:147 *1674:A2_N 0.000100823
45 *360:164 *1674:A2_N 5.74499e-06
*RES
1 *1665:X *361:28 48.2914 
2 *361:28 *361:42 44.3929 
3 *361:42 *1666:A2 9.3 
4 *361:42 *1674:A2_N 28.1214 
*END

*D_NET *362 0.000366864
*CONN
*I *1667:B1 I *D sky130_fd_sc_hd__o21ai_1
*I *1666:Y O *D sky130_fd_sc_hd__o21ai_1
*CAP
1 *1667:B1 3.88628e-05
2 *1666:Y 3.88628e-05
3 *1667:B1 *1666:B1 3.57366e-05
4 *1666:A1 *1667:B1 9.83388e-05
5 *1667:A2 *1667:B1 2.36643e-05
6 *1674:A2_N *1667:B1 0.000110198
7 *361:42 *1667:B1 2.12005e-05
*RES
1 *1666:Y *1667:B1 20.3857 
*END

*D_NET *363 0.00101757
*CONN
*I *1670:A I *D sky130_fd_sc_hd__clkbuf_1
*I *1669:X O *D sky130_fd_sc_hd__mux2_1
*CAP
1 *1670:A 0.000141049
2 *1669:X 0.000141049
3 *1670:A *1677:A1 0.000357255
4 *1670:A *1838:A 0.00018624
5 *314:109 *1670:A 1.03037e-05
6 *360:41 *1670:A 0.000181673
*RES
1 *1669:X *1670:A 23.5643 
*END

*D_NET *364 0.000368618
*CONN
*I *1673:A I *D sky130_fd_sc_hd__clkbuf_1
*I *1672:X O *D sky130_fd_sc_hd__mux2_1
*CAP
1 *1673:A 9.59888e-05
2 *1672:X 9.59888e-05
3 *1672:S *1673:A 0.000144773
4 *1785:D *1673:A 3.18676e-05
*RES
1 *1672:X *1673:A 21.225 
*END

*D_NET *365 0.000294422
*CONN
*I *1676:A I *D sky130_fd_sc_hd__clkbuf_1
*I *1675:X O *D sky130_fd_sc_hd__mux2_1
*CAP
1 *1676:A 0.000147211
2 *1675:X 0.000147211
*RES
1 *1675:X *1676:A 21.1 
*END

*D_NET *366 0.0015058
*CONN
*I *1678:A I *D sky130_fd_sc_hd__clkbuf_1
*I *1677:X O *D sky130_fd_sc_hd__mux2_1
*CAP
1 *1678:A 0.000433384
2 *1677:X 0.000433384
3 *1678:A *1731:A 0.000444206
4 *1678:A *1782:CLK 0.000177388
5 *1678:A *486:18 0
6 *1782:D *1678:A 1.74352e-05
*RES
1 *1677:X *1678:A 34.5464 
*END

*D_NET *367 0.000481753
*CONN
*I *1680:A I *D sky130_fd_sc_hd__clkbuf_1
*I *1679:X O *D sky130_fd_sc_hd__mux2_1
*CAP
1 *1680:A 0.000201272
2 *1679:X 0.000201272
3 *1680:A *1891:A 0
4 *1679:S *1680:A 5.35386e-05
5 *1681:S *1680:A 2.56694e-05
*RES
1 *1679:X *1680:A 30.9036 
*END

*D_NET *368 0.000384642
*CONN
*I *1682:A I *D sky130_fd_sc_hd__clkbuf_1
*I *1681:X O *D sky130_fd_sc_hd__mux2_1
*CAP
1 *1682:A 0.000192321
2 *1681:X 0.000192321
*RES
1 *1681:X *1682:A 21.9214 
*END

*D_NET *369 0.000752009
*CONN
*I *1684:A I *D sky130_fd_sc_hd__clkbuf_1
*I *1683:X O *D sky130_fd_sc_hd__mux2_1
*CAP
1 *1684:A 0.000217575
2 *1683:X 0.000217575
3 *1684:A *1683:A0 9.97875e-06
4 *1684:A *1689:A0 0.00017802
5 *1684:A *388:94 4.96177e-05
6 *1684:A *388:105 4.16458e-05
7 *1779:D *1684:A 3.75959e-05
*RES
1 *1683:X *1684:A 32.9214 
*END

*D_NET *370 0.000189121
*CONN
*I *1686:A I *D sky130_fd_sc_hd__clkbuf_1
*I *1685:X O *D sky130_fd_sc_hd__mux2_1
*CAP
1 *1686:A 9.45603e-05
2 *1685:X 9.45603e-05
*RES
1 *1685:X *1686:A 20.2786 
*END

*D_NET *371 0.000180016
*CONN
*I *1688:A I *D sky130_fd_sc_hd__clkbuf_1
*I *1687:X O *D sky130_fd_sc_hd__mux2_1
*CAP
1 *1688:A 4.1999e-05
2 *1687:X 4.1999e-05
3 *1688:A *1687:A0 0
4 *1688:A *383:99 3.94224e-05
5 *1688:A *487:43 5.65955e-05
*RES
1 *1687:X *1688:A 19.8679 
*END

*D_NET *372 0.00112839
*CONN
*I *1690:A I *D sky130_fd_sc_hd__clkbuf_1
*I *1689:X O *D sky130_fd_sc_hd__mux2_1
*CAP
1 *1690:A 0.000196713
2 *1689:X 0.000196713
3 *1690:A *1689:A0 0.000139907
4 *1690:A *1776:CLK 0.000484653
5 *1776:D *1690:A 0.000110409
*RES
1 *1689:X *1690:A 24.225 
*END

*D_NET *373 0.000345294
*CONN
*I *1692:A I *D sky130_fd_sc_hd__clkbuf_1
*I *1691:X O *D sky130_fd_sc_hd__mux2_1
*CAP
1 *1692:A 0.000172647
2 *1691:X 0.000172647
*RES
1 *1691:X *1692:A 21.5107 
*END

*D_NET *374 0.00106364
*CONN
*I *1694:A I *D sky130_fd_sc_hd__clkbuf_1
*I *1693:X O *D sky130_fd_sc_hd__mux2_1
*CAP
1 *1694:A 0.000379163
2 *1693:X 0.000379163
3 *1694:A *1716:A 9.58632e-05
4 *1694:A *381:14 0.000139337
5 *1694:A *489:24 4.15914e-05
6 *1774:RESET_B *1694:A 2.85234e-05
*RES
1 *1693:X *1694:A 34.85 
*END

*D_NET *375 0.00194359
*CONN
*I *1702:A I *D sky130_fd_sc_hd__nand2_1
*I *1698:B1 I *D sky130_fd_sc_hd__o21ai_1
*I *1699:A2 I *D sky130_fd_sc_hd__o21ai_1
*I *1697:X O *D sky130_fd_sc_hd__or4_1
*CAP
1 *1702:A 0.000104513
2 *1698:B1 3.01974e-05
3 *1699:A2 0
4 *1697:X 0.000202713
5 *375:14 8.35045e-05
6 *375:12 0.000360532
7 *1698:B1 *1698:A1 3.09889e-05
8 *1698:B1 *1699:A1 1.02132e-05
9 *1698:B1 *1699:B1 0.000105421
10 *1698:B1 *422:14 2.36643e-05
11 *1702:A *1699:B1 5.38444e-06
12 *1702:A *1702:B 5.49544e-05
13 *1702:A *422:14 6.11608e-05
14 *375:12 *1662:D_N 0.000115777
15 *375:12 *1697:A 5.08831e-05
16 *375:12 *1702:B 0.000304668
17 *375:12 *1769:CLK 0.000169095
18 *375:14 *1699:B1 4.73286e-05
19 *375:14 *422:14 0.000182592
*RES
1 *1697:X *375:12 23.3179 
2 *375:12 *375:14 1.76786 
3 *375:14 *1699:A2 9.3 
4 *375:14 *1698:B1 10.675 
5 *375:12 *1702:A 11.925 
*END

*D_NET *376 0.000500817
*CONN
*I *1699:B1 I *D sky130_fd_sc_hd__o21ai_1
*I *1698:Y O *D sky130_fd_sc_hd__o21ai_1
*CAP
1 *1699:B1 7.19624e-05
2 *1698:Y 7.19624e-05
3 *1699:B1 *1698:A1 1.35553e-05
4 *1698:B1 *1699:B1 0.000105421
5 *1702:A *1699:B1 5.38444e-06
6 *1770:D *1699:B1 0.000185203
7 *375:14 *1699:B1 4.73286e-05
*RES
1 *1698:Y *1699:B1 21.2071 
*END

*D_NET *377 0.00422291
*CONN
*I *1701:A2 I *D sky130_fd_sc_hd__o211ai_1
*I *1704:A2 I *D sky130_fd_sc_hd__o21ai_1
*I *1705:B1_N I *D sky130_fd_sc_hd__a21bo_1
*I *1700:X O *D sky130_fd_sc_hd__or2_1
*CAP
1 *1701:A2 0.000227931
2 *1704:A2 0
3 *1705:B1_N 0.000485769
4 *1700:X 9.4409e-05
5 *377:10 0.000666337
6 *377:6 0.000502908
7 *1701:A2 *1665:A 1.00887e-05
8 *1701:A2 *495:38 1.23589e-05
9 *1705:B1_N *1705:A1 9.79526e-05
10 *1705:B1_N *1858:A 0.000141729
11 *1705:B1_N *381:110 0.000330871
12 *1705:B1_N *381:116 5.33005e-05
13 *377:10 *1749:A 1.4403e-05
14 *377:10 *381:110 0.000105591
15 *1705:A2 *1705:B1_N 0.000183726
16 *1767:D *1705:B1_N 0.000312215
17 *1767:RESET_B *1705:B1_N 0.000309794
18 *1768:D *1705:B1_N 0.000128161
19 *339:139 *1701:A2 0.000403635
20 *339:139 *377:6 0.000141729
*RES
1 *1700:X *377:6 10.6571 
2 *377:6 *377:10 7.96429 
3 *377:10 *1705:B1_N 27.05 
4 *377:10 *1704:A2 13.8 
5 *377:6 *1701:A2 23.3179 
*END

*D_NET *378 0.00173581
*CONN
*I *1702:B I *D sky130_fd_sc_hd__nand2_1
*I *1701:Y O *D sky130_fd_sc_hd__o211ai_1
*CAP
1 *1702:B 0.000348022
2 *1701:Y 0.000348022
3 *1702:B *1665:B 0.00022272
4 *1702:B *1697:A 0.000397186
5 *1702:B *422:14 5.49544e-05
6 *1702:B *495:61 5.28442e-06
7 *1702:A *1702:B 5.49544e-05
8 *375:12 *1702:B 0.000304668
*RES
1 *1701:Y *1702:B 36.4571 
*END

*D_NET *379 0.000955798
*CONN
*I *1704:B1 I *D sky130_fd_sc_hd__o21ai_1
*I *1703:Y O *D sky130_fd_sc_hd__o211ai_1
*CAP
1 *1704:B1 0.000277775
2 *1703:Y 0.000277775
3 *1704:B1 *1703:A1 0.000181406
4 *1704:B1 *1703:B1 1.10868e-05
5 *1704:B1 *428:6 7.27282e-05
6 *361:28 *1704:B1 0.000135028
*RES
1 *1703:Y *1704:B1 24.0821 
*END

*D_NET *380 0.0178319
*CONN
*I *1765:A I *D sky130_fd_sc_hd__inv_2
*I *1766:A I *D sky130_fd_sc_hd__inv_2
*I *1763:A I *D sky130_fd_sc_hd__inv_2
*I *1764:A I *D sky130_fd_sc_hd__inv_2
*I *1719:A I *D sky130_fd_sc_hd__clkbuf_8
*I *1752:A I *D sky130_fd_sc_hd__clkbuf_8
*I *1708:A I *D sky130_fd_sc_hd__clkbuf_8
*I *1730:A I *D sky130_fd_sc_hd__clkbuf_8
*I *1741:A I *D sky130_fd_sc_hd__clkbuf_8
*I *1707:X O *D sky130_fd_sc_hd__buf_4
*CAP
1 *1765:A 0.000282572
2 *1766:A 0
3 *1763:A 0
4 *1764:A 0.000246323
5 *1719:A 0
6 *1752:A 0.000407057
7 *1708:A 3.72884e-05
8 *1730:A 0.000271112
9 *1741:A 0
10 *1707:X 0.000446747
11 *380:103 0.00087582
12 *380:69 0.000265475
13 *380:67 0.00338302
14 *380:54 0.00288345
15 *380:38 0.000444346
16 *380:24 0.000658533
17 *380:18 0.000815887
18 *380:14 0.000988048
19 *1730:A *384:12 0.000206435
20 *1752:A *381:6 0.000185118
21 *1752:A *381:52 0.000297804
22 *1764:A *1519:A 0
23 *1764:A *1724:A 0
24 *1764:A *460:10 0
25 *1765:A *1524:A 0.000545459
26 *1765:A *1786:CLK 0.00030417
27 *380:14 *404:14 0
28 *380:18 *1889:A 0
29 *380:18 *404:14 0
30 *380:24 *1839:A 0
31 *380:24 *1889:A 0
32 *380:24 *382:32 0.000222907
33 *380:24 *384:12 5.03772e-05
34 *380:24 *404:14 0
35 *380:67 *1817:CLK 1.83136e-05
36 *380:67 *382:155 0.000913506
37 *380:67 *382:170 0.000217574
38 *380:103 *1518:A 3.10819e-05
39 *380:103 *1524:A 0.0003421
40 *380:103 *1786:CLK 0.000226066
41 *380:103 *460:10 2.02189e-05
42 *1514:B *380:67 7.04988e-05
43 *1514:B *380:69 2.24804e-05
44 *1514:B *380:103 5.89471e-05
45 *1542:A1_N *380:103 0
46 *1552:A *1764:A 4.6025e-06
47 *1552:B *380:69 5.49995e-05
48 *1570:B1 *380:67 6.7085e-05
49 *1572:A *380:67 4.3304e-06
50 *1817:D *380:67 0.000127133
51 *1817:RESET_B *380:67 0.000436098
52 *1817:RESET_B *380:69 5.50052e-05
53 *1818:D *1764:A 5.33436e-05
54 *1818:RESET_B *1764:A 0.000153701
55 *161:86 *380:103 0.00071024
56 *245:12 *380:103 0.000143633
57 *251:6 *380:103 0.000141036
58 *251:16 *380:103 0.000141941
*RES
1 *1707:X *380:14 25.8 
2 *380:14 *380:18 12.5179 
3 *380:18 *380:24 12.25 
4 *380:24 *1741:A 9.3 
5 *380:24 *1730:A 13.9429 
6 *380:18 *380:38 4.5 
7 *380:38 *1708:A 9.83571 
8 *380:38 *1752:A 17.2286 
9 *380:14 *380:54 1.76786 
10 *380:54 *1719:A 9.3 
11 *380:54 *380:67 39.6071 
12 *380:67 *380:69 0.946429 
13 *380:69 *1764:A 23.2821 
14 *380:69 *1763:A 9.3 
15 *380:67 *380:103 24.4286 
16 *380:103 *1766:A 9.3 
17 *380:103 *1765:A 26.2821 
*END

*D_NET *381 0.0368572
*CONN
*I *1712:A I *D sky130_fd_sc_hd__inv_2
*I *1711:A I *D sky130_fd_sc_hd__inv_2
*I *1710:A I *D sky130_fd_sc_hd__inv_2
*I *1709:A I *D sky130_fd_sc_hd__inv_2
*I *1714:A I *D sky130_fd_sc_hd__inv_2
*I *1718:A I *D sky130_fd_sc_hd__inv_2
*I *1715:A I *D sky130_fd_sc_hd__inv_2
*I *1713:A I *D sky130_fd_sc_hd__inv_2
*I *1717:A I *D sky130_fd_sc_hd__inv_2
*I *1716:A I *D sky130_fd_sc_hd__inv_2
*I *1708:X O *D sky130_fd_sc_hd__clkbuf_8
*CAP
1 *1712:A 6.49635e-05
2 *1711:A 0
3 *1710:A 0
4 *1709:A 0
5 *1714:A 0
6 *1718:A 0.000675317
7 *1715:A 3.19014e-05
8 *1713:A 2.13113e-05
9 *1717:A 0.000358715
10 *1716:A 4.84148e-05
11 *1708:X 7.30416e-05
12 *381:116 0.00119075
13 *381:110 0.000813218
14 *381:100 0.000683859
15 *381:94 0.000485686
16 *381:90 0.000781644
17 *381:73 0.00143087
18 *381:56 0.00133092
19 *381:52 0.00248745
20 *381:29 0.00159019
21 *381:14 0.00218105
22 *381:6 0.00293394
23 *1715:A *420:16 1.8461e-05
24 *1717:A *1842:A 6.00106e-05
25 *1717:A *1886:A 0.000252751
26 *1718:A *1689:A1 5.49544e-05
27 *1718:A *470:12 6.97972e-05
28 *381:14 *1693:A1 2.16394e-05
29 *381:14 *1839:A 0
30 *381:14 *1889:A 0
31 *381:14 *382:16 0.000148903
32 *381:14 *384:108 2.06112e-05
33 *381:14 *389:90 0.000102392
34 *381:14 *389:98 0
35 *381:14 *389:128 1.08359e-05
36 *381:14 *403:12 0
37 *381:14 *489:24 0
38 *381:29 *1747:A 0
39 *381:29 *382:32 0.000770231
40 *381:29 *384:12 0.000221459
41 *381:29 *384:14 0.000221766
42 *381:29 *387:125 0
43 *381:29 *489:18 0.00114487
44 *381:29 *489:24 0.00212273
45 *381:52 *1575:A1 5.33005e-05
46 *381:52 *1831:A 0.000142856
47 *381:73 *1663:B 9.80173e-05
48 *381:73 *1671:B2 8.14254e-05
49 *381:73 *1695:A1 3.05605e-05
50 *381:73 *1706:A2 9.87983e-06
51 *381:73 *420:16 0.000992304
52 *381:73 *420:29 3.21796e-05
53 *381:73 *493:14 1.39841e-05
54 *381:90 *1628:A0 0
55 *381:90 *1695:A1 6.61173e-05
56 *381:90 *1769:CLK 0
57 *381:90 *1773:CLK 0
58 *381:90 *1837:A 5.33005e-05
59 *381:94 *1749:A 0.000116655
60 *381:94 *415:27 0
61 *381:94 *422:14 2.79092e-05
62 *381:100 *1701:A1 6.3674e-06
63 *381:100 *1749:A 0.000390245
64 *381:100 *400:22 0.000130419
65 *381:100 *495:21 9.25014e-06
66 *381:100 *495:38 0.000336382
67 *381:110 *1749:A 0.000557559
68 *381:110 *400:22 5.33005e-05
69 *381:110 *482:38 0.00030398
70 *381:116 *1705:A1 6.05161e-06
71 *381:116 *388:152 0.000162946
72 *381:116 *388:163 0.000223169
73 *381:116 *470:12 0.000103993
74 *381:116 *482:38 6.79023e-05
75 *1533:A *381:56 0.000117881
76 *1548:A1 *381:52 0.000654903
77 *1550:A2 *381:52 6.42095e-05
78 *1575:B1 *381:52 0.000181796
79 *1576:B2 *381:52 9.76689e-05
80 *1628:S *381:90 5.31541e-05
81 *1630:S *381:116 9.77264e-06
82 *1671:A1 *381:73 8.34831e-05
83 *1693:S *381:14 0.000615444
84 *1694:A *1716:A 9.58632e-05
85 *1694:A *381:14 0.000139337
86 *1705:B1_N *381:110 0.000330871
87 *1705:B1_N *381:116 5.33005e-05
88 *1752:A *381:6 0.000185118
89 *1752:A *381:52 0.000297804
90 *1768:D *381:110 0.000128161
91 *1769:RESET_B *381:100 3.37618e-05
92 *1770:RESET_B *1712:A 0.000186669
93 *1770:RESET_B *381:90 0.000266486
94 *1771:RESET_B *381:56 6.05161e-06
95 *1771:RESET_B *381:73 0.000195016
96 *1772:RESET_B *381:116 9.06726e-05
97 *1775:D *381:29 0
98 *1775:RESET_B *1717:A 0.000521268
99 *1802:RESET_B *381:29 5.80217e-05
100 *1803:RESET_B *381:29 9.4736e-05
101 *1805:D *381:90 0.000150625
102 *1895:A *381:90 0
103 *149:74 *381:52 5.52302e-05
104 *149:85 *381:52 1.21289e-05
105 *153:43 *381:52 2.28499e-05
106 *153:95 *381:52 0.000174039
107 *251:16 *381:52 0
108 *259:14 *381:56 0.000771792
109 *259:18 *381:56 0.000348664
110 *259:24 *381:52 0.0012881
111 *266:155 *381:52 0.000217601
112 *278:42 *381:52 0.00129122
113 *278:111 *381:56 0.00111076
114 *339:20 *1718:A 0
115 *339:20 *381:116 0
116 *339:139 *381:100 6.05161e-06
117 *339:139 *381:110 2.59355e-05
118 *339:154 *381:90 0.000188713
119 *359:8 *381:73 3.17163e-05
120 *377:10 *381:110 0.000105591
*RES
1 *1708:X *381:6 11.0679 
2 *381:6 *381:14 27.8214 
3 *381:14 *1716:A 10.2464 
4 *381:14 *381:29 46.9821 
5 *381:29 *1717:A 23.1036 
6 *381:6 *381:52 49.8214 
7 *381:52 *381:56 21.0536 
8 *381:56 *1713:A 9.72857 
9 *381:56 *381:73 26.4464 
10 *381:73 *1715:A 10.0321 
11 *381:73 *381:90 22.5893 
12 *381:90 *381:94 7.35714 
13 *381:94 *381:100 15.6964 
14 *381:100 *381:110 19.6429 
15 *381:110 *381:116 17.6071 
16 *381:116 *1718:A 26.3 
17 *381:116 *1714:A 13.8 
18 *381:110 *1709:A 9.3 
19 *381:100 *1710:A 9.3 
20 *381:94 *1711:A 13.8 
21 *381:90 *1712:A 11.0679 
*END

*D_NET *382 0.0428454
*CONN
*I *1729:A I *D sky130_fd_sc_hd__inv_2
*I *1724:A I *D sky130_fd_sc_hd__inv_2
*I *1723:A I *D sky130_fd_sc_hd__inv_2
*I *1721:A I *D sky130_fd_sc_hd__inv_2
*I *1720:A I *D sky130_fd_sc_hd__inv_2
*I *1722:A I *D sky130_fd_sc_hd__inv_2
*I *1728:A I *D sky130_fd_sc_hd__inv_2
*I *1725:A I *D sky130_fd_sc_hd__inv_2
*I *1726:A I *D sky130_fd_sc_hd__inv_2
*I *1727:A I *D sky130_fd_sc_hd__inv_2
*I *1719:X O *D sky130_fd_sc_hd__clkbuf_8
*CAP
1 *1729:A 0.00302668
2 *1724:A 0.000314325
3 *1723:A 0
4 *1721:A 0
5 *1720:A 0.000125389
6 *1722:A 0.00035683
7 *1728:A 0.000251779
8 *1725:A 0.000127937
9 *1726:A 0
10 *1727:A 6.83722e-05
11 *1719:X 0
12 *382:170 0.00518891
13 *382:155 0.00218345
14 *382:117 0.00143305
15 *382:92 0.00171463
16 *382:84 0.00207283
17 *382:72 0.0030212
18 *382:53 0.00250176
19 *382:32 0.0014993
20 *382:16 0.00126454
21 *382:4 0.000834919
22 *1720:A *1687:A1 0
23 *1720:A *1888:A 3.90294e-05
24 *1722:A *1689:A0 0.000171548
25 *1724:A *1560:A1 0
26 *1724:A *1818:CLK 0.00018893
27 *1725:A *393:6 5.49489e-05
28 *1729:A *1636:A0 0
29 *1729:A *1786:CLK 0.000233733
30 *382:16 *1889:A 0
31 *382:16 *389:107 0.000139934
32 *382:16 *389:128 0.000589271
33 *382:32 *1778:CLK 9.41642e-05
34 *382:32 *1839:A 0.000138171
35 *382:32 *384:12 0.000540754
36 *382:32 *389:98 0
37 *382:32 *389:107 5.49544e-05
38 *382:32 *404:14 0
39 *382:32 *489:24 0.000374617
40 *382:53 *1674:B2 4.46186e-06
41 *382:53 *1789:CLK 0.000393017
42 *382:53 *1894:A 0.000291652
43 *382:53 *489:24 0.000640307
44 *382:72 *1634:A1 0
45 *382:72 *1840:A 0.000228592
46 *382:72 *384:43 6.87355e-05
47 *382:72 *387:115 0.000130218
48 *382:72 *489:18 0
49 *382:72 *489:24 0
50 *382:84 *1654:A1 4.01768e-05
51 *382:84 *1654:B2 3.18676e-05
52 *382:84 *1777:CLK 0.000532487
53 *382:84 *394:12 0.000430295
54 *382:92 *408:26 0.000489934
55 *382:117 *1672:A1 0.000256698
56 *382:117 *1689:A0 0.000214367
57 *382:117 *418:8 5.19334e-05
58 *382:117 *487:53 0.00175443
59 *1571:A *382:170 7.7525e-05
60 *1655:B1 *382:84 4.40008e-05
61 *1672:S *382:117 0.000495276
62 *1674:A1_N *382:53 2.2549e-05
63 *1674:A2_N *382:53 2.59355e-05
64 *1685:S *382:32 0
65 *1764:A *1724:A 0
66 *1774:RESET_B *382:32 0.000153047
67 *1777:RESET_B *1720:A 9.96242e-05
68 *1778:RESET_B *382:16 5.65955e-05
69 *1778:RESET_B *382:32 0.000139631
70 *1779:RESET_B *1722:A 0.000176941
71 *1781:RESET_B *1724:A 5.71472e-05
72 *1782:RESET_B *1725:A 5.53136e-05
73 *1782:RESET_B *382:92 5.46508e-05
74 *1783:RESET_B *382:72 5.66971e-05
75 *1784:D *1727:A 7.61932e-05
76 *1784:RESET_B *1727:A 3.4879e-05
77 *1784:RESET_B *382:32 0.000175519
78 *1786:RESET_B *1729:A 0.000163108
79 *1798:D *382:72 8.00806e-05
80 *1818:D *1724:A 0
81 *149:118 *1729:A 5.98008e-05
82 *162:112 *1729:A 0.000155302
83 *162:126 *1729:A 4.69987e-05
84 *162:126 *382:170 7.18114e-05
85 *266:67 *1720:A 0.0001179
86 *266:67 *382:84 0.000200749
87 *314:73 *382:84 0.000916894
88 *339:20 *1722:A 0
89 *359:22 *1722:A 0.000411178
90 *359:32 *1722:A 1.94879e-05
91 *359:49 *382:72 0
92 *360:24 *382:72 0
93 *360:24 *382:84 0.000367563
94 *360:24 *382:92 0.00185999
95 *360:113 *382:72 0
96 *360:132 *382:53 0
97 *360:132 *382:72 0.000134737
98 *360:147 *382:53 0
99 *380:24 *382:32 0.000222907
100 *380:67 *382:155 0.000913506
101 *380:67 *382:170 0.000217574
102 *381:14 *382:16 0.000148903
103 *381:29 *382:32 0.000770231
*RES
1 *1719:X *382:4 9.3 
2 *382:4 *382:16 21.2679 
3 *382:16 *382:32 35.1964 
4 *382:32 *1727:A 11.0679 
5 *382:32 *382:53 26.4464 
6 *382:53 *1726:A 9.3 
7 *382:53 *382:72 43.9643 
8 *382:72 *382:84 35.1518 
9 *382:84 *382:92 10.6068 
10 *382:92 *1725:A 16.1304 
11 *382:92 *382:117 33.6161 
12 *382:117 *1728:A 17.6214 
13 *382:117 *1722:A 23.6393 
14 *382:84 *1720:A 17.1661 
15 *382:16 *1721:A 9.3 
16 *382:4 *382:155 8.75 
17 *382:155 *1723:A 9.3 
18 *382:155 *382:170 12.3728 
19 *382:170 *1724:A 23.3975 
20 *382:170 *1729:A 26.1754 
*END

*D_NET *383 0.0310622
*CONN
*I *1732:A I *D sky130_fd_sc_hd__inv_2
*I *1734:A I *D sky130_fd_sc_hd__inv_2
*I *1740:A I *D sky130_fd_sc_hd__inv_2
*I *1731:A I *D sky130_fd_sc_hd__inv_2
*I *1736:A I *D sky130_fd_sc_hd__inv_2
*I *1738:A I *D sky130_fd_sc_hd__inv_2
*I *1737:A I *D sky130_fd_sc_hd__inv_2
*I *1739:A I *D sky130_fd_sc_hd__inv_2
*I *1733:A I *D sky130_fd_sc_hd__inv_2
*I *1735:A I *D sky130_fd_sc_hd__inv_2
*I *1730:X O *D sky130_fd_sc_hd__clkbuf_8
*CAP
1 *1732:A 0
2 *1734:A 0
3 *1740:A 0.00031527
4 *1731:A 0.000598926
5 *1736:A 8.66145e-06
6 *1738:A 0
7 *1737:A 0
8 *1739:A 0
9 *1733:A 3.55348e-05
10 *1735:A 6.17904e-05
11 *1730:X 0.000466398
12 *383:177 0.00209114
13 *383:156 0.00373693
14 *383:101 0.000628496
15 *383:99 0.00179901
16 *383:86 0.00219063
17 *383:61 0.000944687
18 *383:48 0.00221101
19 *383:31 0.00230639
20 *383:25 0.0024343
21 *383:12 0.00103996
22 *1731:A *1787:CLK 0.000124291
23 *1731:A *1838:A 3.92854e-05
24 *1731:A *1893:A 3.17067e-05
25 *1733:A *1848:A 3.69047e-06
26 *1740:A *1782:CLK 0.00010032
27 *1740:A *388:14 1.138e-05
28 *1740:A *388:18 1.08399e-05
29 *1740:A *486:18 1.578e-05
30 *383:12 *1693:A0 2.86367e-05
31 *383:12 *385:26 0.000338037
32 *383:12 *385:41 0.000273241
33 *383:12 *391:18 0.00011839
34 *383:12 *485:22 0.00010395
35 *383:25 *1849:A 0
36 *383:25 *474:25 0
37 *383:25 *485:22 0.000143959
38 *383:31 *1848:A 0.000178092
39 *383:31 *1849:A 0
40 *383:48 *1645:B2 0
41 *383:48 *1751:A 0
42 *383:48 *1827:A 4.25809e-05
43 *383:48 *1848:A 0
44 *383:48 *1857:A 0
45 *383:48 *384:54 0
46 *383:48 *461:14 0
47 *383:48 *461:27 0
48 *383:48 *489:10 0.000124012
49 *383:61 *387:52 5.38273e-05
50 *383:86 *1638:A0 2.26424e-05
51 *383:86 *1653:A1 0.000185124
52 *383:86 *1654:A1 0.000265085
53 *383:86 *1777:CLK 0
54 *383:86 *387:52 0.000112995
55 *383:86 *487:43 0.000390972
56 *383:86 *488:16 5.33005e-05
57 *383:99 *1653:A1 0.000100685
58 *383:99 *487:43 0.000353382
59 *383:156 *1742:A 5.52302e-05
60 *383:156 *1790:CLK 0.000310139
61 *383:156 *473:8 2.95641e-05
62 *383:156 *486:70 9.87648e-05
63 *383:177 *473:8 3.18676e-05
64 *383:177 *479:20 0.000414638
65 *1482:B *383:48 0
66 *1520:B1 *383:177 0.000114592
67 *1521:A3 *383:177 0
68 *1528:B *383:156 6.82569e-05
69 *1543:A *383:177 4.74489e-06
70 *1557:A2 *383:177 0.000149554
71 *1585:A1 *383:25 0
72 *1585:B1 *383:25 0.000108209
73 *1596:A *383:177 0
74 *1617:A2 *383:48 0
75 *1624:A2 *383:48 0
76 *1625:A2 *383:48 0
77 *1645:A1_N *383:48 2.26973e-05
78 *1648:A2 *1740:A 3.63184e-06
79 *1649:B1 *1740:A 0.000304076
80 *1651:B1 *383:48 2.37944e-05
81 *1653:B1 *383:86 1.00332e-05
82 *1655:A2 *383:48 5.71472e-05
83 *1655:A2 *383:61 0.000257248
84 *1657:A2 *1740:A 1.03403e-05
85 *1657:B1 *1740:A 3.92856e-05
86 *1672:S *1731:A 0
87 *1677:A0 *1731:A 0.000187612
88 *1678:A *1731:A 0.000444206
89 *1688:A *383:99 3.94224e-05
90 *1787:D *1731:A 5.28768e-05
91 *1787:RESET_B *1731:A 8.00806e-05
92 *1789:RESET_B *1733:A 5.52302e-05
93 *1790:D *383:156 0.00014011
94 *1791:RESET_B *383:12 0.000173601
95 *1792:D *383:99 0.000122091
96 *1792:RESET_B *1736:A 5.71472e-05
97 *1792:RESET_B *383:99 3.60243e-05
98 *1794:D *383:86 0
99 *1795:RESET_B *383:48 5.50052e-05
100 *1795:RESET_B *383:61 6.21609e-05
101 *1796:RESET_B *1740:A 0.000168503
102 *1806:RESET_B *383:48 5.01234e-05
103 *1807:D *383:48 0
104 *1807:RESET_B *383:48 0
105 *1808:RESET_B *383:48 7.66056e-05
106 *1813:RESET_B *383:25 5.54506e-05
107 *1814:RESET_B *383:12 0.000102545
108 *151:74 *383:177 0
109 *151:85 *383:177 0
110 *161:66 *383:177 0.000397734
111 *173:30 *383:48 0
112 *205:18 *383:177 6.44994e-05
113 *247:19 *383:177 1.02504e-05
114 *248:17 *383:177 2.15759e-05
115 *255:8 *383:156 9.66977e-05
116 *259:129 *1740:A 4.6484e-05
117 *266:67 *383:86 0
118 *278:10 *383:177 0.000449725
119 *278:71 *383:31 2.1527e-05
120 *303:20 *1740:A 5.57948e-05
121 *303:63 *383:99 2.39313e-05
122 *303:145 *383:25 0
123 *306:12 *383:156 0.000748005
124 *314:10 *383:156 0.000137505
125 *331:8 *1733:A 2.44318e-05
126 *331:8 *383:48 0.000151061
127 *338:32 *383:86 4.23557e-05
128 *349:16 *383:48 0.000160414
129 *360:164 *383:25 0.000317687
130 *361:42 *383:156 0.000124642
*RES
1 *1730:X *383:12 31.1036 
2 *383:12 *1735:A 10.2464 
3 *383:12 *383:25 16.0536 
4 *383:25 *383:31 10.2143 
5 *383:31 *1733:A 10.2464 
6 *383:31 *383:48 46.25 
7 *383:48 *1739:A 9.3 
8 *383:48 *383:61 5.21429 
9 *383:61 *1737:A 9.3 
10 *383:61 *383:86 30.0893 
11 *383:86 *1738:A 9.3 
12 *383:86 *383:99 20.0893 
13 *383:99 *383:101 0.428571 
14 *383:101 *1736:A 9.83571 
15 *383:101 *1731:A 31.7286 
16 *383:99 *1740:A 26.0054 
17 *383:25 *383:156 38.1071 
18 *383:156 *1734:A 9.3 
19 *383:156 *383:177 46.3571 
20 *383:177 *1732:A 9.3 
*END

*D_NET *384 0.0373393
*CONN
*I *1746:A I *D sky130_fd_sc_hd__inv_2
*I *1750:A I *D sky130_fd_sc_hd__inv_2
*I *1749:A I *D sky130_fd_sc_hd__inv_2
*I *1742:A I *D sky130_fd_sc_hd__inv_2
*I *1748:A I *D sky130_fd_sc_hd__inv_2
*I *1744:A I *D sky130_fd_sc_hd__inv_2
*I *1745:A I *D sky130_fd_sc_hd__inv_2
*I *1751:A I *D sky130_fd_sc_hd__inv_2
*I *1743:A I *D sky130_fd_sc_hd__inv_2
*I *1747:A I *D sky130_fd_sc_hd__inv_2
*I *1741:X O *D sky130_fd_sc_hd__clkbuf_8
*CAP
1 *1746:A 0
2 *1750:A 0
3 *1749:A 0.0011746
4 *1742:A 0.000852078
5 *1748:A 1.57668e-05
6 *1744:A 0.000118781
7 *1745:A 2.22847e-05
8 *1751:A 0.00052819
9 *1743:A 0
10 *1747:A 0.000111319
11 *1741:X 0
12 *384:143 0.00195086
13 *384:135 0.00330424
14 *384:108 0.00561264
15 *384:73 0.00133146
16 *384:54 0.00236029
17 *384:43 0.00119564
18 *384:14 0.000940051
19 *384:12 0.00163239
20 *384:4 0.00357441
21 *1742:A *486:70 0.000564681
22 *1742:A *491:43 0.000359525
23 *1744:A *486:35 0.000356028
24 *1747:A *1634:A1 5.52302e-05
25 *1747:A *387:125 5.71472e-05
26 *1748:A *1894:A 1.59901e-05
27 *1749:A *400:22 0
28 *1749:A *415:25 0
29 *1749:A *415:27 0
30 *1749:A *495:21 0
31 *1751:A *409:14 0
32 *384:12 *1632:A1 0
33 *384:12 *404:14 0
34 *384:43 *387:115 0.000123352
35 *384:43 *480:33 5.49544e-05
36 *384:54 *1753:A 0
37 *384:54 *409:14 0
38 *384:54 *480:33 0.000299223
39 *384:108 *389:98 0
40 *384:135 *390:53 1.10632e-05
41 *384:143 *1770:CLK 0.0001736
42 *384:143 *390:53 9.54798e-06
43 *384:143 *479:12 0
44 *1517:A2 *1742:A 5.26743e-05
45 *1520:A2 *1742:A 0.000233818
46 *1523:A2 *1742:A 1.04707e-05
47 *1549:A3 *384:108 6.82085e-05
48 *1549:A3 *384:135 0.000426539
49 *1553:A *1742:A 0.000125102
50 *1557:B1 *1742:A 1.00375e-05
51 *1631:A *1749:A 7.83587e-05
52 *1632:S *1747:A 3.34366e-05
53 *1632:S *384:12 2.31791e-05
54 *1632:S *384:14 0.000762697
55 *1633:A *384:12 0
56 *1634:S *1747:A 0.000148911
57 *1641:A *1744:A 8.17713e-05
58 *1679:A0 *384:108 0
59 *1685:S *384:108 2.28077e-05
60 *1730:A *384:12 0.000206435
61 *1768:RESET_B *1749:A 0.000371533
62 *1774:RESET_B *384:12 0.000154762
63 *1784:D *384:12 0
64 *1784:RESET_B *384:12 0.000175519
65 *1790:D *1742:A 0.000157687
66 *1798:D *384:43 8.00806e-05
67 *1798:RESET_B *384:43 5.8024e-05
68 *1803:RESET_B *384:12 0.000177227
69 *1804:D *1749:A 5.11714e-05
70 *1804:RESET_B *1749:A 9.36295e-05
71 *1807:RESET_B *384:54 0.000202128
72 *1868:A *1749:A 0
73 *1895:A *384:143 7.19508e-05
74 *159:27 *384:135 0.000143457
75 *162:56 *1742:A 0.000221536
76 *165:10 *1742:A 1.59827e-05
77 *238:19 *1742:A 3.65665e-05
78 *244:10 *1742:A 0.000379045
79 *269:12 *1742:A 1.90936e-05
80 *279:55 *1742:A 0
81 *314:10 *1742:A 0.000525935
82 *339:26 *1744:A 9.03252e-05
83 *339:26 *384:73 0.000226016
84 *339:69 *384:43 0.000612348
85 *339:139 *1749:A 0.000317214
86 *339:154 *1749:A 0.000415056
87 *358:14 *384:143 0.000103127
88 *359:16 *384:143 0.00014285
89 *359:95 *384:108 0.000592446
90 *359:95 *384:135 0.000556965
91 *377:10 *1749:A 1.4403e-05
92 *380:24 *384:12 5.03772e-05
93 *381:14 *384:108 2.06112e-05
94 *381:29 *1747:A 0
95 *381:29 *384:12 0.000221459
96 *381:29 *384:14 0.000221766
97 *381:94 *1749:A 0.000116655
98 *381:100 *1749:A 0.000390245
99 *381:110 *1749:A 0.000557559
100 *382:32 *384:12 0.000540754
101 *382:72 *384:43 6.87355e-05
102 *383:48 *1751:A 0
103 *383:48 *384:54 0
104 *383:156 *1742:A 5.52302e-05
*RES
1 *1741:X *384:4 9.3 
2 *384:4 *384:12 36.4107 
3 *384:12 *384:14 9.83929 
4 *384:14 *1747:A 16.5857 
5 *384:14 *384:43 26.0893 
6 *384:43 *1743:A 9.3 
7 *384:43 *384:54 17.0714 
8 *384:54 *1751:A 22.7286 
9 *384:54 *384:73 23.5357 
10 *384:73 *1745:A 9.72857 
11 *384:73 *1744:A 13.55 
12 *384:12 *1748:A 14.0946 
13 *384:4 *384:108 13.1343 
14 *384:108 *1742:A 41.1654 
15 *384:108 *384:135 10.0036 
16 *384:135 *384:143 17.4643 
17 *384:143 *1749:A 48.8893 
18 *384:143 *1750:A 9.3 
19 *384:135 *1746:A 13.8 
*END

*D_NET *385 0.0309219
*CONN
*I *1762:A I *D sky130_fd_sc_hd__inv_2
*I *1761:A I *D sky130_fd_sc_hd__inv_2
*I *1758:A I *D sky130_fd_sc_hd__inv_2
*I *1756:A I *D sky130_fd_sc_hd__inv_2
*I *1755:A I *D sky130_fd_sc_hd__inv_2
*I *1757:A I *D sky130_fd_sc_hd__inv_2
*I *1759:A I *D sky130_fd_sc_hd__inv_2
*I *1754:A I *D sky130_fd_sc_hd__inv_2
*I *1753:A I *D sky130_fd_sc_hd__inv_2
*I *1760:A I *D sky130_fd_sc_hd__inv_2
*I *1752:X O *D sky130_fd_sc_hd__clkbuf_8
*CAP
1 *1762:A 8.4832e-05
2 *1761:A 0
3 *1758:A 5.65864e-05
4 *1756:A 0.000348028
5 *1755:A 0.00070446
6 *1757:A 0
7 *1759:A 4.84858e-05
8 *1754:A 0.00024843
9 *1753:A 0.000547332
10 *1760:A 0
11 *1752:X 0
12 *385:108 0.00132922
13 *385:102 0.00224211
14 *385:100 0.00294957
15 *385:92 0.00397236
16 *385:51 0.00144515
17 *385:45 0.000884815
18 *385:41 0.00284737
19 *385:26 0.000778435
20 *385:12 0.000753843
21 *385:6 0.000371956
22 *1753:A *409:14 0.00110976
23 *1754:A *1617:A1 0.000135842
24 *1754:A *1857:A 0.000100165
25 *1755:A *1600:A1 0.000136304
26 *1756:A *471:37 0
27 *1759:A *389:36 2.89114e-05
28 *1762:A *1659:A1 0.000134248
29 *1762:A *391:12 8.59967e-05
30 *385:12 *1659:A1 0.000192906
31 *385:12 *391:12 0.000130323
32 *385:26 *1583:A1_N 1.3701e-05
33 *385:26 *1693:A0 3.85676e-05
34 *385:26 *391:18 0
35 *385:41 *1693:A0 0.000302416
36 *385:41 *391:18 1.08359e-05
37 *385:51 *391:18 0.000228035
38 *385:51 *409:14 0.000568949
39 *385:51 *481:37 0.000356211
40 *385:92 *1513:A 8.14423e-05
41 *385:92 *1825:A 1.58163e-05
42 *385:92 *390:14 9.67754e-05
43 *385:100 *1594:A1 0.000105648
44 *385:100 *1595:A1 3.19472e-05
45 *385:100 *1812:CLK 0.000148531
46 *385:100 *390:14 0.000194842
47 *385:102 *1599:B1 0
48 *385:102 *1604:A1 0.000430483
49 *385:102 *470:26 0
50 *385:102 *472:54 0
51 *385:108 *1600:A1 0.000143633
52 *385:108 *1604:A1 1.41706e-05
53 *385:108 *388:105 0
54 *385:108 *388:122 0
55 *385:108 *470:26 0
56 *385:108 *471:18 0
57 *385:108 *471:31 0
58 *1433:B1 *385:92 1.98839e-05
59 *1513:B *385:92 7.06211e-05
60 *1516:A *385:92 0.000274689
61 *1531:A1 *385:102 0.000357492
62 *1546:B1 *385:92 0.000221071
63 *1556:A *385:92 5.33005e-05
64 *1556:B *385:92 2.60585e-05
65 *1564:A1 *385:92 1.8556e-05
66 *1564:A2 *385:92 0.00016602
67 *1564:B1_N *385:92 5.49097e-05
68 *1565:A2 *385:92 5.95771e-05
69 *1581:B2 *385:92 2.13481e-06
70 *1583:B2 *385:45 7.24611e-05
71 *1593:A *385:102 4.38375e-05
72 *1594:A2 *385:100 5.49544e-05
73 *1594:A3 *385:100 0.000226146
74 *1600:A2 *1755:A 0.000226279
75 *1600:B2 *1755:A 1.98839e-05
76 *1601:A2 *385:102 4.76016e-06
77 *1604:A2 *385:102 0.000693142
78 *1604:B1 *385:102 4.3143e-05
79 *1604:B2 *385:102 0.000123295
80 *1617:A2 *1754:A 5.50052e-05
81 *1617:A2 *385:51 8.08342e-05
82 *1659:A3 *385:45 0.000162431
83 *1693:S *385:26 0
84 *1812:D *385:100 0.00014391
85 *193:16 *385:102 0
86 *193:29 *385:102 0.000221163
87 *193:44 *385:102 0.000171375
88 *240:6 *385:92 4.27126e-05
89 *240:12 *385:92 0.000508508
90 *256:59 *1758:A 0.000139893
91 *256:59 *385:100 0
92 *256:59 *385:102 0.000442451
93 *258:16 *1758:A 4.41105e-05
94 *258:16 *385:100 9.87983e-06
95 *258:16 *385:102 8.63357e-05
96 *259:102 *385:102 0.000156896
97 *278:71 *385:45 0.000235295
98 *278:71 *385:51 0.000203709
99 *303:145 *385:45 9.10697e-05
100 *303:145 *385:51 0.000219449
101 *313:12 *385:100 1.39139e-05
102 *383:12 *385:26 0.000338037
103 *383:12 *385:41 0.000273241
104 *384:54 *1753:A 0
*RES
1 *1752:X *385:6 13.8 
2 *385:6 *385:12 11.3571 
3 *385:12 *385:26 18.25 
4 *385:26 *1760:A 9.3 
5 *385:26 *385:41 15.1786 
6 *385:41 *385:45 10.6964 
7 *385:45 *385:51 19 
8 *385:51 *1753:A 27.8893 
9 *385:51 *1754:A 18.8893 
10 *385:45 *1759:A 14.7643 
11 *385:41 *385:92 34.0536 
12 *385:92 *385:100 25.1518 
13 *385:100 *385:102 34.8839 
14 *385:102 *385:108 16 
15 *385:108 *1757:A 9.3 
16 *385:108 *1755:A 21.6929 
17 *385:102 *1756:A 19.2821 
18 *385:100 *1758:A 15.5946 
19 *385:12 *1761:A 9.3 
20 *385:6 *1762:A 16.9607 
*END

*D_NET *386 0.0161511
*CONN
*I *1825:A I *D sky130_fd_sc_hd__clkbuf_16
*I *1824:A I *D sky130_fd_sc_hd__clkbuf_16
*I *1823:A I *D sky130_fd_sc_hd__clkbuf_16
*I *1822:A I *D sky130_fd_sc_hd__clkbuf_16
*I *1821:X O *D sky130_fd_sc_hd__clkbuf_16
*CAP
1 *1825:A 6.03036e-05
2 *1824:A 0.00140405
3 *1823:A 0.000142419
4 *1822:A 0.00149387
5 *1821:X 0.000313326
6 *386:50 0.0027882
7 *386:20 0.003033
8 *386:14 0.00303388
9 *1822:A *1648:A1 1.87931e-05
10 *1823:A *478:23 0
11 *1824:A *389:10 0.000159861
12 *386:14 *1540:A 0
13 *386:20 *1648:A1 0.000231829
14 *386:20 *484:10 0.000262136
15 *386:50 *1648:A1 0.000327777
16 *1516:B *1824:A 0.000194822
17 *1565:A2 *1824:A 3.50559e-05
18 *1577:A *1824:A 8.07792e-06
19 *1641:A *1823:A 0
20 *1647:C1 *386:14 0
21 *1659:A3 *1824:A 0
22 *1661:B1 *1824:A 4.44301e-05
23 *1679:A0 *1824:A 7.62869e-06
24 *3:23 *386:20 0.00181911
25 *150:102 *386:14 6.74867e-05
26 *159:41 *1824:A 0.000135028
27 *162:36 *1824:A 7.06369e-05
28 *162:36 *1825:A 4.21517e-05
29 *162:36 *386:50 0.00031007
30 *200:54 *1824:A 8.55871e-05
31 *266:28 *386:20 0
32 *266:123 *386:50 0
33 *278:10 *1825:A 1.88175e-05
34 *314:40 *1822:A 2.69614e-05
35 *339:61 *1822:A 0
36 *385:92 *1825:A 1.58163e-05
*RES
1 *1821:X *386:14 22.0914 
2 *386:14 *386:20 8.2275 
3 *386:20 *1822:A 20.3597 
4 *386:20 *1823:A 19.6118 
5 *386:14 *386:50 6.4227 
6 *386:50 *1824:A 24.036 
7 *386:50 *1825:A 18.3261 
*END

*D_NET *387 0.0220048
*CONN
*I *1800:CLK I *D sky130_fd_sc_hd__dfrtp_4
*I *1794:CLK I *D sky130_fd_sc_hd__dfrtp_1
*I *1807:CLK I *D sky130_fd_sc_hd__dfrtp_1
*I *1798:CLK I *D sky130_fd_sc_hd__dfrtp_4
*I *1802:CLK I *D sky130_fd_sc_hd__dfrtp_4
*I *1803:CLK I *D sky130_fd_sc_hd__dfrtp_4
*I *1808:CLK I *D sky130_fd_sc_hd__dfrtp_1
*I *1789:CLK I *D sky130_fd_sc_hd__dfrtp_1
*I *1783:CLK I *D sky130_fd_sc_hd__dfrtp_1
*I *1775:CLK I *D sky130_fd_sc_hd__dfrtp_1
*I *1806:CLK I *D sky130_fd_sc_hd__dfrtp_1
*I *1793:CLK I *D sky130_fd_sc_hd__dfrtp_1
*I *1795:CLK I *D sky130_fd_sc_hd__dfrtp_1
*I *1777:CLK I *D sky130_fd_sc_hd__dfrtp_1
*I *1799:CLK I *D sky130_fd_sc_hd__dfrtp_2
*I *1822:X O *D sky130_fd_sc_hd__clkbuf_16
*CAP
1 *1800:CLK 0
2 *1794:CLK 2.37855e-05
3 *1807:CLK 0
4 *1798:CLK 0
5 *1802:CLK 0
6 *1803:CLK 0.000245986
7 *1808:CLK 0.000118348
8 *1789:CLK 0.000291851
9 *1783:CLK 7.69523e-05
10 *1775:CLK 0.00059918
11 *1806:CLK 0.00010887
12 *1793:CLK 0.00026321
13 *1795:CLK 0.000207408
14 *1777:CLK 0.000258183
15 *1799:CLK 0.000234661
16 *1822:X 0.000186844
17 *387:159 0.000955391
18 *387:155 0.000985556
19 *387:140 0.000727027
20 *387:127 0.00105488
21 *387:125 0.000602235
22 *387:115 0.00118697
23 *387:93 0.000981378
24 *387:76 0.000734647
25 *387:63 0.000492345
26 *387:52 0.0010937
27 *387:46 0.00110034
28 *387:29 0.000859515
29 *387:23 0.000411066
30 *387:10 0.000421506
31 *1775:CLK *1886:A 0.000183158
32 *1777:CLK *1638:A0 0.000305754
33 *1777:CLK *1654:A1 0
34 *1789:CLK *1632:A1 3.36298e-05
35 *1789:CLK *481:37 5.65955e-05
36 *1793:CLK *409:14 6.19181e-05
37 *1803:CLK *1632:A0 0.000109809
38 *1803:CLK *1632:A1 0
39 *1806:CLK *1691:A0 0.000111639
40 *1806:CLK *1691:A1 0.000139344
41 *387:29 *1638:A0 0.000536134
42 *387:29 *1638:A1 3.75081e-05
43 *387:29 *1691:A0 7.10395e-05
44 *387:29 *488:16 5.4923e-05
45 *387:46 *488:16 7.29023e-05
46 *387:52 *488:16 1.56e-05
47 *387:76 *409:14 0.000335746
48 *387:93 *409:14 0.000318128
49 *387:115 *1634:A1 6.05161e-06
50 *387:125 *1634:A1 0.000151525
51 product[9] *1803:CLK 1.26686e-05
52 *1633:A *1803:CLK 0
53 *1634:S *387:125 5.52302e-05
54 *1638:S *387:29 5.65955e-05
55 *1639:A *387:29 0.000152207
56 *1651:A3 *1793:CLK 9.31893e-05
57 *1651:B1 *1793:CLK 0.000230475
58 *1652:A2 *387:29 0.000146991
59 *1655:A2 *387:52 0.00052996
60 *1747:A *387:125 5.71472e-05
61 *1783:D *387:140 3.9733e-05
62 *1783:D *387:155 1.6806e-05
63 *1793:D *387:52 5.52302e-05
64 *1793:RESET_B *387:52 5.33005e-05
65 *1794:D *1777:CLK 3.69697e-05
66 *1794:D *387:29 1.76616e-05
67 *1795:D *1793:CLK 0.000174313
68 *1795:D *387:76 4.61703e-05
69 *1798:D *387:115 3.42135e-05
70 *1800:D *1799:CLK 7.24799e-05
71 *1800:D *387:29 9.66977e-05
72 *1802:D *1775:CLK 3.17067e-05
73 *1802:D *387:125 2.89114e-05
74 *1802:D *387:140 6.75007e-05
75 *1802:RESET_B *387:125 0
76 *1803:D *1803:CLK 4.1331e-06
77 *1807:D *387:93 7.27282e-05
78 *1872:A *387:140 4.87541e-05
79 *259:135 *1799:CLK 0.000101011
80 *266:67 *1777:CLK 0.000408048
81 *303:73 *1793:CLK 0.000195396
82 *339:26 *387:10 9.84729e-05
83 *360:12 *1795:CLK 5.76694e-05
84 *360:24 *1777:CLK 0.000100388
85 *360:24 *1793:CLK 1.69252e-05
86 *360:113 *387:76 0.000311236
87 *360:113 *387:93 0.000314717
88 *360:113 *387:115 0
89 *360:132 *1789:CLK 0
90 *381:29 *387:125 0
91 *382:53 *1789:CLK 0.000393017
92 *382:72 *387:115 0.000130218
93 *382:84 *1777:CLK 0.000532487
94 *383:61 *387:52 5.38273e-05
95 *383:86 *1777:CLK 0
96 *383:86 *387:52 0.000112995
97 *384:43 *387:115 0.000123352
*RES
1 *1822:X *387:10 16.6929 
2 *387:10 *1799:CLK 18.6393 
3 *387:10 *387:23 4.5 
4 *387:23 *387:29 15.5179 
5 *387:29 *1777:CLK 22.925 
6 *387:29 *387:46 7.10714 
7 *387:46 *387:52 14.2321 
8 *387:52 *1795:CLK 11.8 
9 *387:52 *387:63 4.5 
10 *387:63 *1793:CLK 21.7286 
11 *387:63 *387:76 8.32143 
12 *387:76 *1806:CLK 16.8 
13 *387:76 *387:93 15.2321 
14 *387:93 *387:115 19.1964 
15 *387:115 *387:125 19.7143 
16 *387:125 *387:127 4.5 
17 *387:127 *1775:CLK 25.8536 
18 *387:127 *387:140 8.92857 
19 *387:140 *1783:CLK 15.1929 
20 *387:140 *387:155 3.16071 
21 *387:155 *387:159 12.8393 
22 *387:159 *1789:CLK 25.0679 
23 *387:159 *1808:CLK 11.0679 
24 *387:155 *1803:CLK 18.7821 
25 *387:125 *1802:CLK 9.3 
26 *387:115 *1798:CLK 9.3 
27 *387:93 *1807:CLK 9.3 
28 *387:46 *1794:CLK 9.72857 
29 *387:23 *1800:CLK 9.3 
*END

*D_NET *388 0.0200042
*CONN
*I *1809:CLK I *D sky130_fd_sc_hd__dfrtp_2
*I *1768:CLK I *D sky130_fd_sc_hd__dfrtp_1
*I *1767:CLK I *D sky130_fd_sc_hd__dfrtp_1
*I *1804:CLK I *D sky130_fd_sc_hd__dfrtp_4
*I *1772:CLK I *D sky130_fd_sc_hd__dfrtp_4
*I *1810:CLK I *D sky130_fd_sc_hd__dfrtp_2
*I *1776:CLK I *D sky130_fd_sc_hd__dfrtp_1
*I *1779:CLK I *D sky130_fd_sc_hd__dfrtp_1
*I *1785:CLK I *D sky130_fd_sc_hd__dfrtp_1
*I *1787:CLK I *D sky130_fd_sc_hd__dfrtp_1
*I *1811:CLK I *D sky130_fd_sc_hd__dfrtp_2
*I *1796:CLK I *D sky130_fd_sc_hd__dfrtp_1
*I *1792:CLK I *D sky130_fd_sc_hd__dfrtp_1
*I *1782:CLK I *D sky130_fd_sc_hd__dfrtp_1
*I *1823:X O *D sky130_fd_sc_hd__clkbuf_16
*CAP
1 *1809:CLK 0
2 *1768:CLK 3.3415e-05
3 *1767:CLK 0.00055708
4 *1804:CLK 0
5 *1772:CLK 0
6 *1810:CLK 9.72221e-05
7 *1776:CLK 0.000339535
8 *1779:CLK 8.20229e-05
9 *1785:CLK 0
10 *1787:CLK 0.000426684
11 *1811:CLK 0
12 *1796:CLK 0
13 *1792:CLK 0.000341049
14 *1782:CLK 0.000403919
15 *1823:X 0.000437734
16 *388:163 0.000880154
17 *388:152 0.000826148
18 *388:139 0.000755713
19 *388:122 0.000653456
20 *388:105 0.000937755
21 *388:94 0.000597005
22 *388:80 0.000874208
23 *388:74 0.00126276
24 *388:65 0.00101184
25 *388:41 0.000699077
26 *388:35 0.0008084
27 *388:18 0.000569065
28 *388:14 0.00060288
29 *1767:CLK *494:8 2.89114e-05
30 *1779:CLK *1600:A1 6.05161e-06
31 *1782:CLK *486:18 0
32 *1792:CLK *1650:A1 0.000100082
33 *1792:CLK *1834:A 0
34 *1792:CLK *486:35 0
35 *388:14 *1648:A1 1.65027e-05
36 *388:18 *1683:A0 9.96553e-05
37 *388:41 *1650:A1 0.000167342
38 *388:41 *1683:A0 4.17702e-05
39 *388:41 *490:10 0.000220159
40 *388:65 *1610:A1 0.000133798
41 *388:65 *1683:A0 1.4796e-05
42 *388:80 *1689:A0 0
43 *388:80 *1883:A 0.000102776
44 *388:94 *1600:A1 3.17784e-05
45 *388:94 *1689:A0 0
46 *388:94 *471:12 0
47 *388:105 *1689:A0 0
48 *388:122 *470:26 0.000369818
49 *388:139 *470:12 0.000312222
50 *388:139 *470:26 0.000336389
51 *388:152 *470:12 0.000131564
52 *388:163 *1858:A 0.000169987
53 *388:163 *482:38 7.70208e-05
54 *1600:B2 *388:65 0.000187253
55 *1601:A2 *388:139 0
56 *1605:B1 *388:139 8.22245e-05
57 *1648:B1 *388:14 0.000100165
58 *1672:A0 *388:80 0
59 *1678:A *1782:CLK 0.000177388
60 *1684:A *388:94 4.96177e-05
61 *1684:A *388:105 4.16458e-05
62 *1689:S *1776:CLK 0.000186669
63 *1690:A *1776:CLK 0.000484653
64 *1731:A *1787:CLK 0.000124291
65 *1740:A *1782:CLK 0.00010032
66 *1740:A *388:14 1.138e-05
67 *1740:A *388:18 1.08399e-05
68 *1767:RESET_B *1767:CLK 2.48016e-05
69 *1772:D *388:152 5.50052e-05
70 *1776:D *1776:CLK 7.22626e-05
71 *1779:D *1779:CLK 8.86129e-06
72 *1779:D *388:105 7.74135e-05
73 *1782:D *1782:CLK 5.62995e-05
74 *1785:D *1787:CLK 5.03772e-05
75 *1785:D *388:80 6.87574e-05
76 *1785:RESET_B *388:80 0.000125316
77 *1787:D *1787:CLK 7.28929e-05
78 *1787:RESET_B *1787:CLK 4.96254e-05
79 *1796:RESET_B *1782:CLK 4.27842e-06
80 *1796:RESET_B *388:18 7.78928e-05
81 *1796:RESET_B *388:41 4.27935e-05
82 *1809:D *388:18 2.26917e-05
83 *1809:D *388:65 4.36809e-05
84 *1810:D *388:122 5.83233e-05
85 *1810:D *388:139 0.000101545
86 *1810:RESET_B *388:122 0
87 *1811:D *388:74 2.85234e-05
88 *1811:RESET_B *388:74 4.83905e-05
89 *1811:RESET_B *388:94 0
90 *3:23 *1787:CLK 0.000101601
91 *163:61 *1792:CLK 6.21627e-05
92 *163:61 *388:41 0.000328871
93 *163:61 *388:65 0.000672577
94 *259:129 *388:14 5.01102e-05
95 *259:129 *388:18 1.54874e-05
96 *259:133 *388:14 6.90866e-06
97 *266:28 *388:14 3.61807e-05
98 *266:67 *1792:CLK 0
99 *321:8 *388:139 0.000140243
100 *338:32 *1782:CLK 0
101 *339:16 *388:163 0
102 *339:20 *388:163 0
103 *359:20 *388:122 0
104 *359:20 *388:139 0
105 *359:22 *388:105 0
106 *359:22 *388:122 0
107 *381:116 *388:152 0.000162946
108 *381:116 *388:163 0.000223169
109 *385:108 *388:105 0
110 *385:108 *388:122 0
*RES
1 *1823:X *388:14 24.3 
2 *388:14 *388:18 7.66071 
3 *388:18 *1782:CLK 21.8 
4 *388:18 *388:35 4.5 
5 *388:35 *388:41 9.5 
6 *388:41 *1792:CLK 24.7464 
7 *388:41 *1796:CLK 9.3 
8 *388:35 *388:65 10.8393 
9 *388:65 *1811:CLK 9.3 
10 *388:65 *388:74 14.0714 
11 *388:74 *388:80 13.3036 
12 *388:80 *1787:CLK 17.6393 
13 *388:80 *1785:CLK 9.3 
14 *388:74 *388:94 4.98214 
15 *388:94 *1779:CLK 15.1571 
16 *388:94 *388:105 4.98214 
17 *388:105 *1776:CLK 22.3 
18 *388:105 *388:122 7.71429 
19 *388:122 *1810:CLK 15.175 
20 *388:122 *388:139 12.1786 
21 *388:139 *1772:CLK 9.3 
22 *388:139 *388:152 13.5357 
23 *388:152 *1804:CLK 13.8 
24 *388:152 *388:163 11.9107 
25 *388:163 *1767:CLK 18.0679 
26 *388:163 *1768:CLK 9.83571 
27 *388:14 *1809:CLK 9.3 
*END

*D_NET *389 0.0250408
*CONN
*I *1781:CLK I *D sky130_fd_sc_hd__dfrtp_1
*I *1817:CLK I *D sky130_fd_sc_hd__dfrtp_2
*I *1814:CLK I *D sky130_fd_sc_hd__dfrtp_4
*I *1780:CLK I *D sky130_fd_sc_hd__dfrtp_1
*I *1816:CLK I *D sky130_fd_sc_hd__dfrtp_2
*I *1815:CLK I *D sky130_fd_sc_hd__dfrtp_4
*I *1778:CLK I *D sky130_fd_sc_hd__dfrtp_1
*I *1791:CLK I *D sky130_fd_sc_hd__dfrtp_1
*I *1813:CLK I *D sky130_fd_sc_hd__dfrtp_4
*I *1784:CLK I *D sky130_fd_sc_hd__dfrtp_1
*I *1774:CLK I *D sky130_fd_sc_hd__dfrtp_1
*I *1797:CLK I *D sky130_fd_sc_hd__dfrtp_2
*I *1790:CLK I *D sky130_fd_sc_hd__dfrtp_1
*I *1824:X O *D sky130_fd_sc_hd__clkbuf_16
*CAP
1 *1781:CLK 0.000833311
2 *1817:CLK 1.89093e-05
3 *1814:CLK 0
4 *1780:CLK 0.000365585
5 *1816:CLK 0
6 *1815:CLK 0
7 *1778:CLK 0.000494444
8 *1791:CLK 0.000327974
9 *1813:CLK 0.000208404
10 *1784:CLK 3.82418e-05
11 *1774:CLK 0.000530187
12 *1797:CLK 2.23854e-05
13 *1790:CLK 0.000326251
14 *1824:X 0
15 *389:157 0.0017447
16 *389:128 0.000852326
17 *389:107 0.000592322
18 *389:98 0.00104363
19 *389:90 0.000920269
20 *389:73 0.00100327
21 *389:60 0.000407038
22 *389:38 0.00148824
23 *389:36 0.00237985
24 *389:25 0.00159727
25 *389:10 0.00109584
26 *389:4 0.00154723
27 *1774:CLK *404:14 0
28 *1780:CLK *391:12 0.000184524
29 *1781:CLK *1560:A1 0
30 *1790:CLK *491:61 5.76839e-05
31 *1813:CLK *1674:B2 0
32 *1813:CLK *489:24 0
33 *389:38 *1674:B2 2.87846e-05
34 *389:38 *1854:A 2.27416e-05
35 *389:38 *404:14 0.000184542
36 *389:73 *489:24 0
37 *389:98 *1839:A 0.000173389
38 *389:98 *489:24 0.000113372
39 *389:128 *391:12 0
40 *1514:B *1817:CLK 2.84109e-05
41 *1516:A *389:157 7.49752e-05
42 *1516:C *389:157 0.00022117
43 *1517:B1 *389:157 0
44 *1520:A2 *389:157 0
45 *1549:A3 *389:157 0
46 *1557:B1 *389:157 0
47 *1558:B1 *389:157 0
48 *1561:B1 *389:157 0
49 *1565:A2 *389:10 7.83587e-05
50 *1574:A1 *389:157 8.42226e-05
51 *1585:A2 *389:36 9.90367e-05
52 *1585:B1 *389:36 2.89016e-05
53 *1586:B2 *389:36 2.77289e-05
54 *1647:B1 *1790:CLK 2.07809e-05
55 *1674:A1_N *1813:CLK 2.86767e-05
56 *1674:A2_N *1813:CLK 6.05161e-06
57 *1679:A0 *1781:CLK 0
58 *1681:S *1781:CLK 0
59 *1693:S *389:90 0.000225307
60 *1759:A *389:36 2.89114e-05
61 *1774:D *1774:CLK 4.79842e-05
62 *1778:RESET_B *1778:CLK 1.9132e-05
63 *1781:D *1781:CLK 4.37999e-05
64 *1781:RESET_B *1781:CLK 6.05161e-06
65 *1791:D *1791:CLK 0.000144224
66 *1797:D *1790:CLK 0.000125724
67 *1813:RESET_B *389:36 9.71197e-05
68 *1814:D *389:90 6.05161e-06
69 *1816:D *1780:CLK 2.11336e-05
70 *1824:A *389:10 0.000159861
71 *153:41 *1790:CLK 0
72 *153:41 *389:10 0
73 *161:10 *389:10 0.000235318
74 *163:22 *1790:CLK 0
75 *163:22 *389:10 0
76 *163:22 *389:25 3.22964e-05
77 *173:107 *389:157 0
78 *200:54 *389:10 0.000388893
79 *239:6 *389:36 0.000517566
80 *239:34 *389:36 5.33005e-05
81 *239:49 *389:10 0.000370332
82 *241:10 *389:157 0.000149113
83 *241:12 *389:157 0.000778683
84 *263:43 *1790:CLK 4.62401e-05
85 *269:12 *389:157 0
86 *279:55 *389:10 0
87 *279:55 *389:157 5.41794e-05
88 *280:12 *389:10 1.36609e-05
89 *314:29 *1790:CLK 0.000170301
90 *360:147 *1813:CLK 5.66157e-05
91 *360:164 *1813:CLK 5.20751e-05
92 *361:42 *1790:CLK 0.000575877
93 *380:67 *1817:CLK 1.83136e-05
94 *381:14 *389:90 0.000102392
95 *381:14 *389:98 0
96 *381:14 *389:128 1.08359e-05
97 *382:16 *389:107 0.000139934
98 *382:16 *389:128 0.000589271
99 *382:32 *1778:CLK 9.41642e-05
100 *382:32 *389:98 0
101 *382:32 *389:107 5.49544e-05
102 *383:156 *1790:CLK 0.000310139
103 *384:108 *389:98 0
*RES
1 *1824:X *389:4 9.3 
2 *389:4 *389:10 16.9464 
3 *389:10 *1790:CLK 24.55 
4 *389:10 *389:25 6.26786 
5 *389:25 *1797:CLK 9.72857 
6 *389:25 *389:36 17.8036 
7 *389:36 *389:38 11.2143 
8 *389:38 *1774:CLK 28.0679 
9 *389:38 *1784:CLK 10.0321 
10 *389:36 *389:60 4.5 
11 *389:60 *1813:CLK 17.9071 
12 *389:60 *389:73 3.46429 
13 *389:73 *1791:CLK 18.3536 
14 *389:73 *389:90 14.1786 
15 *389:90 *389:98 17.875 
16 *389:98 *1778:CLK 17.2286 
17 *389:98 *389:107 2.17857 
18 *389:107 *1815:CLK 9.3 
19 *389:107 *389:128 19.8036 
20 *389:128 *1816:CLK 9.3 
21 *389:128 *1780:CLK 25.6929 
22 *389:90 *1814:CLK 9.3 
23 *389:4 *389:157 24.6607 
24 *389:157 *1817:CLK 14.3357 
25 *389:157 *1781:CLK 25.1929 
*END

*D_NET *390 0.0229198
*CONN
*I *1771:CLK I *D sky130_fd_sc_hd__dfrtp_2
*I *1819:CLK I *D sky130_fd_sc_hd__dfrtp_1
*I *1818:CLK I *D sky130_fd_sc_hd__dfrtp_1
*I *1786:CLK I *D sky130_fd_sc_hd__dfrtp_1
*I *1820:CLK I *D sky130_fd_sc_hd__dfrtp_2
*I *1805:CLK I *D sky130_fd_sc_hd__dfrtp_4
*I *1773:CLK I *D sky130_fd_sc_hd__dfrtp_1
*I *1769:CLK I *D sky130_fd_sc_hd__dfrtp_1
*I *1770:CLK I *D sky130_fd_sc_hd__dfrtp_1
*I *1801:CLK I *D sky130_fd_sc_hd__dfrtp_4
*I *1812:CLK I *D sky130_fd_sc_hd__dfrtp_2
*I *1788:CLK I *D sky130_fd_sc_hd__dfrtp_2
*I *1825:X O *D sky130_fd_sc_hd__clkbuf_16
*CAP
1 *1771:CLK 0.000129344
2 *1819:CLK 0
3 *1818:CLK 0.000686521
4 *1786:CLK 0.000752967
5 *1820:CLK 0
6 *1805:CLK 0
7 *1773:CLK 0.000312309
8 *1769:CLK 0.000527174
9 *1770:CLK 0.000219764
10 *1801:CLK 0
11 *1812:CLK 0.000253103
12 *1788:CLK 0
13 *1825:X 0.000562847
14 *390:139 0.00148131
15 *390:122 0.00165475
16 *390:113 0.000470525
17 *390:107 0.000695024
18 *390:72 0.000839483
19 *390:70 0.000164445
20 *390:53 0.000658028
21 *390:42 0.000491672
22 *390:38 0.000575448
23 *390:25 0.000663337
24 *390:14 0.00081763
25 *1769:CLK *1662:A 0.000136682
26 *1769:CLK *479:12 1.41642e-05
27 *1769:CLK *495:61 0.000136682
28 *1769:CLK *497:8 0
29 *1770:CLK *1668:A3 0.000142856
30 *1771:CLK *1706:A2 2.27416e-05
31 *1773:CLK *1695:A1 0.000124869
32 *1773:CLK *1695:A2 0.000102656
33 *1773:CLK *420:10 7.73758e-05
34 *1773:CLK *479:12 8.13491e-05
35 *1812:CLK *1595:A1 4.57857e-05
36 *1818:CLK *1518:A 0.000106467
37 *1818:CLK *1679:A1 8.00806e-05
38 *390:42 *483:32 0.00049031
39 *390:53 *483:32 0.000255048
40 *390:70 *479:12 0.000487641
41 *390:113 *398:12 0.000375565
42 *390:122 *398:12 0.000171948
43 *390:139 *1518:A 6.84903e-05
44 *390:139 *398:12 0.000331996
45 *1433:A1 *390:14 0.000139344
46 *1433:A2 *390:14 0.000123946
47 *1433:B1 *390:14 5.50052e-05
48 *1437:C1 *1771:CLK 7.29015e-05
49 *1437:C1 *390:113 9.67304e-05
50 *1532:A1_N *390:113 0.000139631
51 *1532:A2_N *390:113 2.36643e-05
52 *1534:B1 *390:113 8.33056e-05
53 *1538:B1 *390:42 0.000225616
54 *1594:A3 *1812:CLK 0.000363089
55 *1594:A3 *390:38 0.000373699
56 *1594:A3 *390:107 0.000235852
57 *1595:A2 *1812:CLK 5.33005e-05
58 *1636:S *390:70 0.000253465
59 *1668:A2 *1812:CLK 0.000197362
60 *1706:B1 *1771:CLK 2.89016e-05
61 *1724:A *1818:CLK 0.00018893
62 *1729:A *1786:CLK 0.000233733
63 *1765:A *1786:CLK 0.00030417
64 *1771:D *1771:CLK 0.000182694
65 *1773:D *1773:CLK 5.52302e-05
66 *1781:RESET_B *1818:CLK 0
67 *1788:D *390:25 7.57312e-05
68 *1788:RESET_B *1812:CLK 3.17067e-05
69 *1788:RESET_B *390:38 6.75007e-05
70 *1801:D *390:42 4.27437e-05
71 *1801:D *390:53 6.87574e-05
72 *1801:RESET_B *390:53 3.79467e-05
73 *1812:D *1812:CLK 5.66971e-05
74 *1819:RESET_B *390:139 2.81849e-05
75 *1895:A *1769:CLK 0.000198705
76 *1895:A *1773:CLK 0.000175519
77 *153:117 *390:113 0.000396227
78 *161:86 *390:113 0
79 *162:22 *1812:CLK 5.06479e-05
80 *162:22 *390:38 8.21423e-05
81 *162:22 *390:107 6.02752e-05
82 *162:89 *390:107 0.000125665
83 *173:91 *390:14 0.000366775
84 *256:8 *390:42 0.000250656
85 *256:59 *390:42 0.000136951
86 *266:155 *390:14 0.00036506
87 *313:12 *1812:CLK 5.49995e-05
88 *321:23 *1770:CLK 0.000390379
89 *321:23 *390:53 0.000188074
90 *339:154 *1769:CLK 0
91 *358:14 *1769:CLK 0
92 *359:20 *1769:CLK 0
93 *359:20 *1770:CLK 0
94 *375:12 *1769:CLK 0.000169095
95 *380:103 *1786:CLK 0.000226066
96 *381:90 *1769:CLK 0
97 *381:90 *1773:CLK 0
98 *384:135 *390:53 1.10632e-05
99 *384:143 *1770:CLK 0.0001736
100 *384:143 *390:53 9.54798e-06
101 *385:92 *390:14 9.67754e-05
102 *385:100 *1812:CLK 0.000148531
103 *385:100 *390:14 0.000194842
*RES
1 *1825:X *390:14 32.2643 
2 *390:14 *1788:CLK 9.3 
3 *390:14 *390:25 8.75 
4 *390:25 *1812:CLK 22.1929 
5 *390:25 *390:38 4.98214 
6 *390:38 *390:42 13.25 
7 *390:42 *1801:CLK 9.3 
8 *390:42 *390:53 11.6964 
9 *390:53 *1770:CLK 20.1393 
10 *390:53 *390:70 10.3929 
11 *390:70 *390:72 4.5 
12 *390:72 *1769:CLK 24.6929 
13 *390:72 *1773:CLK 21.7464 
14 *390:70 *1805:CLK 9.3 
15 *390:38 *390:107 10.1429 
16 *390:107 *390:113 14.125 
17 *390:113 *1820:CLK 13.8 
18 *390:113 *390:122 2.25 
19 *390:122 *1786:CLK 28.3 
20 *390:122 *390:139 16.3036 
21 *390:139 *1818:CLK 31.0679 
22 *390:139 *1819:CLK 9.3 
23 *390:107 *1771:CLK 12.7107 
*END

*D_NET *391 0.00910194
*CONN
*I *1642:A0 I *D sky130_fd_sc_hd__mux2_1
*I *1859:X O *D sky130_fd_sc_hd__buf_1
*CAP
1 *1642:A0 0
2 *1859:X 0.000974622
3 *391:18 0.0013649
4 *391:12 0.00233952
5 *391:12 *1659:A1 0
6 *391:12 *392:20 9.90367e-05
7 *391:18 *1659:A1 0
8 *391:18 *1693:A0 0.000315841
9 *391:18 *409:14 0.000913485
10 *391:18 *485:22 0.000195856
11 *1617:B1_N *391:18 0.000250754
12 *1674:A1_N *391:18 0.000155483
13 *1693:S *391:18 0
14 *1762:A *391:12 8.59967e-05
15 *1780:CLK *391:12 0.000184524
16 *1814:D *391:18 7.6644e-05
17 *1814:RESET_B *391:18 1.31516e-05
18 *1815:RESET_B *391:12 0.000177234
19 *278:61 *391:18 0.000114759
20 *278:71 *391:18 0.00110237
21 *339:61 *391:18 0.000126439
22 *339:69 *391:18 9.90431e-05
23 *360:113 *391:18 2.46999e-05
24 *360:132 *391:18 0
25 *360:147 *391:18 0
26 *383:12 *391:18 0.00011839
27 *385:12 *391:12 0.000130323
28 *385:26 *391:18 0
29 *385:41 *391:18 1.08359e-05
30 *385:51 *391:18 0.000228035
31 *389:128 *391:12 0
*RES
1 *1859:X *391:12 34.2286 
2 *391:12 *391:18 44.8393 
3 *391:18 *1642:A0 9.3 
*END

*D_NET *392 0.00694343
*CONN
*I *1659:A1 I *D sky130_fd_sc_hd__a31o_1
*I *1860:X O *D sky130_fd_sc_hd__buf_1
*CAP
1 *1659:A1 0.00114287
2 *1860:X 0.00118331
3 *392:20 0.00232618
4 *1583:B2 *1659:A1 0.000318294
5 *1762:A *1659:A1 0.000134248
6 *1780:D *1659:A1 6.65192e-05
7 *1816:RESET_B *1659:A1 0.000101178
8 *1867:A *392:20 0.000307466
9 *278:61 *1659:A1 0
10 *278:71 *1659:A1 0
11 *360:164 *1659:A1 0.00107143
12 *385:12 *1659:A1 0.000192906
13 *391:12 *1659:A1 0
14 *391:12 *392:20 9.90367e-05
15 *391:18 *1659:A1 0
*RES
1 *1860:X *392:20 33.1393 
2 *392:20 *1659:A1 44.5857 
*END

*D_NET *393 0.00670465
*CONN
*I *1657:A1 I *D sky130_fd_sc_hd__a31o_1
*I *1861:X O *D sky130_fd_sc_hd__buf_1
*CAP
1 *1657:A1 0.000305747
2 *1861:X 0.00234707
3 *393:6 0.00265281
4 *1657:A1 *1640:A0 0.000234396
5 *1657:A1 *486:18 9.16325e-06
6 *393:6 *1640:A0 0.000186669
7 *393:6 *1881:A 2.89114e-05
8 *393:6 *1893:A 0.000126639
9 *393:6 *408:26 0.000108286
10 product[8] *393:6 1.32552e-05
11 *1657:B1 *1657:A1 0.000305679
12 *1725:A *393:6 5.49489e-05
13 *1782:RESET_B *393:6 5.49489e-05
14 *1861:A *393:6 0.000198352
15 *1869:A *393:6 7.77751e-05
*RES
1 *1861:X *393:6 47.6214 
2 *393:6 *1657:A1 25.1036 
*END

*D_NET *394 0.00531402
*CONN
*I *1655:A1 I *D sky130_fd_sc_hd__a31o_1
*I *1862:X O *D sky130_fd_sc_hd__clkbuf_1
*CAP
1 *1655:A1 0
2 *1862:X 0.0021388
3 *394:12 0.0021388
4 *1651:A3 *394:12 1.78447e-05
5 *1655:A3 *394:12 4.64626e-05
6 *1655:B1 *394:12 0.000312383
7 *1862:A *394:12 5.62995e-05
8 *266:79 *394:12 1.0562e-05
9 *360:24 *394:12 0.000162575
10 *382:84 *394:12 0.000430295
*RES
1 *1862:X *394:12 47.55 
2 *394:12 *1655:A1 9.3 
*END

*D_NET *395 0.0209185
*CONN
*I *1653:A1 I *D sky130_fd_sc_hd__a31o_1
*I *1863:X O *D sky130_fd_sc_hd__buf_1
*CAP
1 *1653:A1 0.00263359
2 *1863:X 0.000804708
3 *395:14 0.0040456
4 *395:10 0.00221671
5 *1653:A1 *1649:A1 0.00150916
6 *1653:A1 *487:43 4.35597e-05
7 *395:10 *1630:A0 0.000239303
8 *395:10 *415:27 0.000334659
9 *395:14 *1630:A0 0.000204424
10 *395:14 *1649:A1 0.000545818
11 *395:14 *415:25 0.00199477
12 *395:14 *415:27 6.75405e-05
13 *395:14 *482:14 0.000367991
14 product[2] *395:14 4.53834e-05
15 *1863:A *395:10 8.50795e-06
16 *1874:A *395:10 0
17 *3:23 *1653:A1 0.00482598
18 *303:63 *1653:A1 0.000354934
19 *359:49 *1653:A1 0.000164334
20 *360:24 *1653:A1 0.000198271
21 *360:74 *1653:A1 2.74588e-05
22 *383:86 *1653:A1 0.000185124
23 *383:99 *1653:A1 0.000100685
*RES
1 *1863:X *395:10 32.3268 
2 *395:10 *395:14 42.8921 
3 *395:14 *1653:A1 30.3132 
*END

*D_NET *396 0.00394562
*CONN
*I *1651:A1 I *D sky130_fd_sc_hd__a31o_1
*I *1864:X O *D sky130_fd_sc_hd__clkbuf_1
*CAP
1 *1651:A1 0
2 *1864:X 0.00176281
3 *396:16 0.00176281
4 *396:16 *498:DIODE 9.68208e-05
5 *396:16 *408:26 0.000103213
6 *396:16 *408:28 0.000152374
7 *396:16 *409:14 1.71615e-05
8 *1651:A2 *396:16 1.02504e-05
9 *1651:B1 *396:16 0
10 *1864:A *396:16 4.01768e-05
*RES
1 *1864:X *396:16 41.2286 
2 *396:16 *1651:A1 9.3 
*END

*D_NET *397 0.00860041
*CONN
*I *1649:A1 I *D sky130_fd_sc_hd__a31o_1
*I *1865:X O *D sky130_fd_sc_hd__buf_1
*CAP
1 *1649:A1 0.00291005
2 *1865:X 0.00291005
3 *1649:A1 *1669:A1 0.000108229
4 *1649:A1 *486:35 0
5 *1653:A1 *1649:A1 0.00150916
6 *1656:A2 *1649:A1 2.11419e-05
7 *1672:A0 *1649:A1 0.000105045
8 *1865:A *1649:A1 7.54369e-06
9 *303:47 *1649:A1 0.000436311
10 *359:32 *1649:A1 0
11 *360:74 *1649:A1 4.70487e-05
12 *395:14 *1649:A1 0.000545818
*RES
1 *1865:X *1649:A1 48.9058 
*END

*D_NET *398 0.00670778
*CONN
*I *1646:C I *D sky130_fd_sc_hd__and3_1
*I *1866:X O *D sky130_fd_sc_hd__clkbuf_1
*CAP
1 *1646:C 0.00121859
2 *1866:X 0.000964476
3 *398:12 0.00218307
4 *1646:C *1594:A1 0.000125561
5 *1646:C *479:20 0
6 *1646:C *483:32 0
7 *398:12 *1524:A 0
8 *398:12 *1526:A1 0
9 *1442:A1 *1646:C 2.07517e-05
10 *1450:A3 *1646:C 4.34952e-05
11 *1478:A1 *1646:C 0.000115598
12 *1532:A2_N *1646:C 6.65429e-05
13 *1594:A2 *1646:C 0.000286215
14 *1820:D *398:12 0.000282359
15 *1866:A *398:12 3.18676e-05
16 *161:66 *1646:C 0.000322312
17 *161:78 *1646:C 0.000167438
18 *161:135 *1646:C 0
19 *162:22 *1646:C 0
20 *252:25 *1646:C 0
21 *390:113 *398:12 0.000375565
22 *390:122 *398:12 0.000171948
23 *390:139 *398:12 0.000331996
*RES
1 *1866:X *398:12 31.9875 
2 *398:12 *1646:C 37.0589 
*END

*D_NET *399 0.000329472
*CONN
*I *1707:A I *D sky130_fd_sc_hd__buf_4
*I *1867:X O *D sky130_fd_sc_hd__clkbuf_1
*CAP
1 *1707:A 0.000164736
2 *1867:X 0.000164736
3 *1707:A *404:14 0
*RES
1 *1867:X *1707:A 30.3143 
*END

*D_NET *400 0.0121857
*CONN
*I *1627:B I *D sky130_fd_sc_hd__nand2_8
*I *1530:B I *D sky130_fd_sc_hd__and2_1
*I *1646:B I *D sky130_fd_sc_hd__and3_1
*I *1540:A I *D sky130_fd_sc_hd__clkbuf_4
*I *1553:B I *D sky130_fd_sc_hd__nor2_1
*I *1868:X O *D sky130_fd_sc_hd__clkbuf_4
*CAP
1 *1627:B 0
2 *1530:B 0.00014912
3 *1646:B 2.30322e-05
4 *1540:A 0.000417853
5 *1553:B 0.000382827
6 *1868:X 0.00129587
7 *400:36 0.001083
8 *400:34 0.00136597
9 *400:28 0.00144262
10 *400:22 0.00152875
11 *1553:B *479:26 0.000224513
12 *400:22 *1700:A 7.03685e-05
13 *400:22 *1701:A1 2.51343e-06
14 *400:22 *415:25 2.55245e-05
15 *400:22 *415:27 0.000336458
16 *400:22 *495:10 6.5185e-05
17 *400:22 *495:21 0.000103285
18 *400:22 *495:38 5.80706e-06
19 *400:36 *473:25 2.59355e-05
20 *400:36 *473:32 8.25996e-05
21 *400:36 *479:26 0.000583908
22 *1470:B1 *400:36 2.60984e-05
23 *1474:A2 *1540:A 0
24 *1531:A1 *1530:B 0
25 *1531:A1 *400:28 0
26 *1553:A *1553:B 2.13661e-05
27 *1591:A1 *400:34 2.95726e-05
28 *1591:B1 *400:34 5.33005e-05
29 *1593:A *400:34 5.58332e-05
30 *1631:A *400:22 0
31 *1647:C1 *400:34 9.78579e-05
32 *1700:B *400:22 0.000310955
33 *1749:A *400:22 0
34 *1768:RESET_B *400:22 0
35 *150:102 *1540:A 0
36 *157:12 *1540:A 0.000688361
37 *157:12 *400:36 2.59355e-05
38 *157:23 *400:36 4.72917e-05
39 *197:6 *400:34 0.000612298
40 *197:6 *400:36 0.000136682
41 *197:21 *400:34 0.00019412
42 *277:6 *1553:B 2.89016e-05
43 *321:23 *1530:B 0.000202128
44 *321:23 *400:28 0.000153054
45 *339:139 *400:22 0.000103086
46 *381:100 *400:22 0.000130419
47 *381:110 *400:22 5.33005e-05
48 *386:14 *1540:A 0
*RES
1 *1868:X *400:22 41.1036 
2 *400:22 *400:28 8.625 
3 *400:28 *400:34 23.125 
4 *400:34 *400:36 7.10714 
5 *400:36 *1553:B 16.5679 
6 *400:36 *1540:A 27.2286 
7 *400:34 *1646:B 9.72857 
8 *400:28 *1530:B 17.0857 
9 *400:22 *1627:B 9.3 
*END

*D_NET *401 0.0015482
*CONN
*I *1878:A I *D sky130_fd_sc_hd__clkbuf_4
*I *1826:A I *D sky130_fd_sc_hd__dlygate4sd3_1
*I *1773:Q O *D sky130_fd_sc_hd__dfrtp_1
*CAP
1 *1878:A 0.000187464
2 *1826:A 0.000247328
3 *1773:Q 0
4 *401:6 0.000434792
5 *1826:A *1695:A1 0.000273269
6 *1826:A *415:27 0.000128161
7 *1878:A *415:27 0.000265571
8 done *1878:A 1.16198e-05
*RES
1 *1773:Q *401:6 13.8 
2 *401:6 *1826:A 19.2643 
3 *401:6 *1878:A 18.2107 
*END

*D_NET *402 0.00297015
*CONN
*I *1640:A0 I *D sky130_fd_sc_hd__mux2_1
*I *1869:X O *D sky130_fd_sc_hd__clkbuf_1
*CAP
1 *1640:A0 0.000862383
2 *1869:X 0.000862383
3 *1640:A0 *1640:A1 5.66971e-05
4 *1640:A0 *1648:B2 0.000167477
5 *1640:A0 *1650:A1 0.000104036
6 *1648:B1 *1640:A0 0.00016485
7 *1657:A1 *1640:A0 0.000234396
8 *259:133 *1640:A0 8.18064e-05
9 *259:135 *1640:A0 1.35465e-05
10 *303:20 *1640:A0 0
11 *314:86 *1640:A0 0.000194941
12 *314:109 *1640:A0 4.09646e-05
13 *393:6 *1640:A0 0.000186669
*RES
1 *1869:X *1640:A0 44.6893 
*END

*D_NET *403 0.00128991
*CONN
*I *1843:A I *D sky130_fd_sc_hd__dlygate4sd3_1
*I *1879:A I *D sky130_fd_sc_hd__clkbuf_4
*I *1774:Q O *D sky130_fd_sc_hd__dfrtp_1
*CAP
1 *1843:A 0
2 *1879:A 0.000447752
3 *1774:Q 0.000133127
4 *403:12 0.00058088
5 *403:12 *1693:A1 0
6 *403:12 *489:24 0.000128154
7 *381:14 *403:12 0
*RES
1 *1774:Q *403:12 20.8893 
2 *403:12 *1879:A 16.4071 
3 *403:12 *1843:A 9.3 
*END

*D_NET *404 0.00486832
*CONN
*I *1854:A I *D sky130_fd_sc_hd__dlygate4sd3_1
*I *1880:A I *D sky130_fd_sc_hd__clkbuf_4
*I *1784:Q O *D sky130_fd_sc_hd__dfrtp_1
*CAP
1 *1854:A 1.86585e-05
2 *1880:A 0
3 *1784:Q 0
4 *404:14 0.00226261
5 *404:4 0.00228127
6 *1854:A *1674:B2 6.05161e-06
7 *1707:A *404:14 0
8 *1774:CLK *404:14 0
9 *1774:D *404:14 0
10 *1778:D *404:14 9.24395e-05
11 *1784:D *404:14 0
12 *380:14 *404:14 0
13 *380:18 *404:14 0
14 *380:24 *404:14 0
15 *382:32 *404:14 0
16 *384:12 *404:14 0
17 *389:38 *1854:A 2.27416e-05
18 *389:38 *404:14 0.000184542
*RES
1 *1784:Q *404:4 9.3 
2 *404:4 *404:14 46.4643 
3 *404:14 *1880:A 13.8 
4 *404:4 *1854:A 9.83571 
*END

*D_NET *405 0.00128924
*CONN
*I *1835:A I *D sky130_fd_sc_hd__dlygate4sd3_1
*I *1881:A I *D sky130_fd_sc_hd__clkbuf_4
*I *1785:Q O *D sky130_fd_sc_hd__dfrtp_1
*CAP
1 *1835:A 0
2 *1881:A 0.000172986
3 *1785:Q 0.000304363
4 *405:10 0.000477348
5 *1881:A *1689:A0 5.59013e-05
6 *405:10 *1689:A0 0.000148189
7 *405:10 *1883:A 0.000101545
8 *393:6 *1881:A 2.89114e-05
*RES
1 *1785:Q *405:10 18.3357 
2 *405:10 *1881:A 16.8893 
3 *405:10 *1835:A 13.8 
*END

*D_NET *406 0.00140346
*CONN
*I *1882:A I *D sky130_fd_sc_hd__clkbuf_4
*I *1853:A I *D sky130_fd_sc_hd__dlygate4sd3_1
*I *1786:Q O *D sky130_fd_sc_hd__dfrtp_1
*CAP
1 *1882:A 0.000625669
2 *1853:A 0
3 *1786:Q 7.606e-05
4 *406:8 0.000701729
5 *1882:A *1628:A0 0
6 *1882:A *415:27 0
*RES
1 *1786:Q *406:8 10.675 
2 *406:8 *1853:A 9.3 
3 *406:8 *1882:A 29.3357 
*END

*D_NET *407 0.00390709
*CONN
*I *1883:A I *D sky130_fd_sc_hd__buf_2
*I *1850:A I *D sky130_fd_sc_hd__dlygate4sd3_1
*I *1787:Q O *D sky130_fd_sc_hd__dfrtp_1
*CAP
1 *1883:A 0.00133492
2 *1850:A 0.00018798
3 *1787:Q 3.7533e-05
4 *407:6 0.00156043
5 *1883:A *1672:A1 0.00031119
6 *1672:A0 *1850:A 5.86424e-05
7 *1672:A0 *1883:A 0
8 *1672:S *1850:A 0
9 *1785:D *1850:A 1.59145e-05
10 *1785:D *1883:A 0.000140933
11 *1785:D *407:6 5.52238e-05
12 *388:80 *1883:A 0.000102776
13 *405:10 *1883:A 0.000101545
*RES
1 *1787:Q *407:6 9.83571 
2 *407:6 *1850:A 21.5857 
3 *407:6 *1883:A 38.8 
*END

*D_NET *408 0.021653
*CONN
*I *1830:A I *D sky130_fd_sc_hd__dlygate4sd3_1
*I *1884:A I *D sky130_fd_sc_hd__clkbuf_4
*I *498:DIODE I *D sky130_fd_sc_hd__diode_2
*I *1788:Q O *D sky130_fd_sc_hd__dfrtp_2
*CAP
1 *1830:A 0.000102488
2 *1884:A 0
3 *498:DIODE 0.00015354
4 *1788:Q 0
5 *408:28 0.000410843
6 *408:26 0.00947012
7 *408:4 0.0093153
8 *408:26 *469:37 0.00011929
9 *3:23 *408:26 0
10 *259:98 *408:26 0.000199922
11 *278:113 *408:26 0
12 *278:123 *408:26 0
13 *325:14 *408:26 0.00033711
14 *360:24 *408:26 0.000593777
15 *360:74 *408:26 0
16 *382:92 *408:26 0.000489934
17 *393:6 *408:26 0.000108286
18 *396:16 *498:DIODE 9.68208e-05
19 *396:16 *408:26 0.000103213
20 *396:16 *408:28 0.000152374
*RES
1 *1788:Q *408:4 9.3 
2 *408:4 *408:26 47.681 
3 *408:26 *408:28 5.05357 
4 *408:28 *498:DIODE 12.3 
5 *408:28 *1884:A 9.3 
6 *408:4 *1830:A 10.9786 
*END

*D_NET *409 0.00805124
*CONN
*I *1848:A I *D sky130_fd_sc_hd__dlygate4sd3_1
*I *1885:A I *D sky130_fd_sc_hd__clkbuf_4
*I *1789:Q O *D sky130_fd_sc_hd__dfrtp_1
*CAP
1 *1848:A 0.000212304
2 *1885:A 0
3 *1789:Q 0
4 *409:14 0.00173939
5 *409:4 0.00195169
6 *409:14 *1642:A1 2.56694e-05
7 *409:14 *1691:A1 7.89362e-05
8 *409:14 *481:37 4.58194e-05
9 *1617:A2 *1848:A 0.000437212
10 *1651:A2 *409:14 0
11 *1655:A2 *409:14 0
12 *1733:A *1848:A 3.69047e-06
13 *1751:A *409:14 0
14 *1753:A *409:14 0.00110976
15 *1789:RESET_B *1848:A 8.25843e-06
16 *1789:RESET_B *409:14 3.47797e-05
17 *1793:CLK *409:14 6.19181e-05
18 *278:71 *1848:A 1.02504e-05
19 *360:113 *409:14 0
20 *383:31 *1848:A 0.000178092
21 *383:48 *1848:A 0
22 *384:54 *409:14 0
23 *385:51 *409:14 0.000568949
24 *387:76 *409:14 0.000335746
25 *387:93 *409:14 0.000318128
26 *391:18 *409:14 0.000913485
27 *396:16 *409:14 1.71615e-05
*RES
1 *1789:Q *409:4 9.3 
2 *409:4 *409:14 48.5536 
3 *409:14 *1885:A 13.8 
4 *409:4 *1848:A 24.425 
*END

*D_NET *410 0.00279244
*CONN
*I *1842:A I *D sky130_fd_sc_hd__dlygate4sd3_1
*I *1886:A I *D sky130_fd_sc_hd__clkbuf_4
*I *1775:Q O *D sky130_fd_sc_hd__dfrtp_1
*CAP
1 *1842:A 5.39224e-05
2 *1886:A 0.00109434
3 *1775:Q 0
4 *410:4 0.00114826
5 *1717:A *1842:A 6.00106e-05
6 *1717:A *1886:A 0.000252751
7 *1775:CLK *1886:A 0.000183158
*RES
1 *1775:Q *410:4 9.3 
2 *410:4 *1886:A 33.1036 
3 *410:4 *1842:A 10.5679 
*END

*D_NET *411 0.00206042
*CONN
*I *1887:A I *D sky130_fd_sc_hd__clkbuf_4
*I *1845:A I *D sky130_fd_sc_hd__dlygate4sd3_1
*I *1776:Q O *D sky130_fd_sc_hd__dfrtp_1
*CAP
1 *1887:A 0.000290995
2 *1845:A 0.000319173
3 *1776:Q 6.71205e-05
4 *411:8 0.000677289
5 *1845:A *1689:A1 0.000275936
6 *1845:A *415:25 0.000107503
7 *1887:A *415:25 0.000322407
8 *1776:RESET_B *1845:A 0
*RES
1 *1776:Q *411:8 14.7464 
2 *411:8 *1845:A 20.9964 
3 *411:8 *1887:A 21.2107 
*END

*D_NET *412 0.00181011
*CONN
*I *1834:A I *D sky130_fd_sc_hd__dlygate4sd3_1
*I *1888:A I *D sky130_fd_sc_hd__clkbuf_4
*I *1777:Q O *D sky130_fd_sc_hd__dfrtp_1
*CAP
1 *1834:A 0.000178682
2 *1888:A 0.000307592
3 *1777:Q 0.00017028
4 *412:8 0.000656554
5 *1834:A *486:35 0
6 *1834:A *487:43 2.56694e-05
7 *1888:A *487:43 9.71118e-06
8 *412:8 *487:43 9.90431e-05
9 *1720:A *1888:A 3.90294e-05
10 *1792:CLK *1834:A 0
11 *266:67 *1834:A 0.000300086
12 *266:67 *1888:A 9.25014e-06
13 *314:73 *412:8 1.4211e-05
*RES
1 *1777:Q *412:8 15.9786 
2 *412:8 *1888:A 19.0321 
3 *412:8 *1834:A 17.8714 
*END

*D_NET *413 0.00326764
*CONN
*I *1638:A0 I *D sky130_fd_sc_hd__mux2_1
*I *1870:X O *D sky130_fd_sc_hd__clkbuf_1
*CAP
1 *1638:A0 0.00092199
2 *1870:X 0.00092199
3 *1638:A0 *1638:A1 5.49489e-05
4 *1638:S *1638:A0 0
5 *1639:A *1638:A0 5.09908e-05
6 *1653:B1 *1638:A0 0.000332661
7 *1777:CLK *1638:A0 0.000305754
8 *1800:D *1638:A0 8.0347e-05
9 *1870:A *1638:A0 4.01768e-05
10 *383:86 *1638:A0 2.26424e-05
11 *387:29 *1638:A0 0.000536134
*RES
1 *1870:X *1638:A0 46.3679 
*END

*D_NET *414 0.00249064
*CONN
*I *1889:A I *D sky130_fd_sc_hd__clkbuf_4
*I *1839:A I *D sky130_fd_sc_hd__dlygate4sd3_1
*I *1778:Q O *D sky130_fd_sc_hd__dfrtp_1
*CAP
1 *1889:A 0.000778261
2 *1839:A 0.000249282
3 *1778:Q 0
4 *414:6 0.00102754
5 *1839:A *1685:A1 8.17141e-05
6 product[4] *1889:A 2.11336e-05
7 *1685:S *1839:A 2.11419e-05
8 *380:18 *1889:A 0
9 *380:24 *1839:A 0
10 *380:24 *1889:A 0
11 *381:14 *1839:A 0
12 *381:14 *1889:A 0
13 *382:16 *1889:A 0
14 *382:32 *1839:A 0.000138171
15 *389:98 *1839:A 0.000173389
*RES
1 *1778:Q *414:6 13.8 
2 *414:6 *1839:A 19.675 
3 *414:6 *1889:A 26.925 
*END

*D_NET *415 0.0128693
*CONN
*I *1890:A I *D sky130_fd_sc_hd__buf_2
*I *1683:A1 I *D sky130_fd_sc_hd__mux2_1
*I *1779:Q O *D sky130_fd_sc_hd__dfrtp_1
*CAP
1 *1890:A 0
2 *1683:A1 0.000530415
3 *1779:Q 0
4 *415:27 0.00179713
5 *415:25 0.0033785
6 *415:4 0.00211178
7 *415:27 *1628:A0 0.000532184
8 *415:27 *1630:A0 0.000653983
9 *415:27 *1701:A1 0.000157066
10 *415:27 *422:14 4.15914e-05
11 *415:27 *495:38 0
12 product[5] *415:27 1.21955e-05
13 *1628:S *415:27 0
14 *1683:S *1683:A1 1.58163e-05
15 *1749:A *415:25 0
16 *1749:A *415:27 0
17 *1769:RESET_B *415:27 5.1061e-05
18 *1805:RESET_B *415:27 0
19 *1826:A *415:27 0.000128161
20 *1845:A *415:25 0.000107503
21 *1863:A *415:27 0
22 *1865:A *415:25 4.93118e-06
23 *1868:A *415:25 0
24 *1878:A *415:27 0.000265571
25 *1882:A *415:27 0
26 *1887:A *415:25 0.000322407
27 *339:154 *415:27 0
28 *381:94 *415:27 0
29 *395:10 *415:27 0.000334659
30 *395:14 *415:25 0.00199477
31 *395:14 *415:27 6.75405e-05
32 *400:22 *415:25 2.55245e-05
33 *400:22 *415:27 0.000336458
*RES
1 *1779:Q *415:4 9.3 
2 *415:4 *1683:A1 25.0857 
3 *415:4 *415:25 38.9554 
4 *415:25 *415:27 47.0268 
5 *415:27 *1890:A 13.8 
*END

*D_NET *416 0.000985839
*CONN
*I *1891:A I *D sky130_fd_sc_hd__clkbuf_4
*I *1836:A I *D sky130_fd_sc_hd__dlygate4sd3_1
*I *1780:Q O *D sky130_fd_sc_hd__dfrtp_1
*CAP
1 *1891:A 0.000290518
2 *1836:A 0
3 *1780:Q 3.46333e-05
4 *416:6 0.000325152
5 *1891:A *1681:A0 0
6 *1891:A *1681:A1 0.000102659
7 *416:6 *1681:A1 3.11088e-05
8 *1680:A *1891:A 0
9 *1681:S *1891:A 0.000102269
10 *360:168 *1891:A 6.48098e-05
11 *360:168 *416:6 3.4689e-05
*RES
1 *1780:Q *416:6 10.2464 
2 *416:6 *1836:A 9.3 
3 *416:6 *1891:A 24.5679 
*END

*D_NET *417 0.0006626
*CONN
*I *1892:A I *D sky130_fd_sc_hd__clkbuf_4
*I *1844:A I *D sky130_fd_sc_hd__dlygate4sd3_1
*I *1781:Q O *D sky130_fd_sc_hd__dfrtp_1
*CAP
1 *1892:A 8.5662e-05
2 *1844:A 4.29162e-05
3 *1781:Q 0.000118573
4 *417:6 0.000247152
5 *1781:RESET_B *1844:A 0.000136422
6 *1781:RESET_B *417:6 3.18747e-05
*RES
1 *1781:Q *417:6 11.0679 
2 *417:6 *1844:A 10.9786 
3 *417:6 *1892:A 19.6393 
*END

*D_NET *418 0.00208728
*CONN
*I *1838:A I *D sky130_fd_sc_hd__dlygate4sd3_1
*I *1893:A I *D sky130_fd_sc_hd__clkbuf_4
*I *1782:Q O *D sky130_fd_sc_hd__dfrtp_1
*CAP
1 *1838:A 0.000293031
2 *1893:A 0.000276808
3 *1782:Q 0.000133007
4 *418:8 0.000702845
5 product[8] *1893:A 5.33433e-05
6 *1670:A *1838:A 0.00018624
7 *1731:A *1838:A 3.92854e-05
8 *1731:A *1893:A 3.17067e-05
9 *1787:RESET_B *1838:A 6.20091e-06
10 *360:24 *1838:A 0
11 *360:24 *1893:A 0
12 *360:41 *1838:A 0.00018624
13 *382:117 *418:8 5.19334e-05
14 *393:6 *1893:A 0.000126639
*RES
1 *1782:Q *418:8 15.5679 
2 *418:8 *1893:A 19.4429 
3 *418:8 *1838:A 19.6393 
*END

*D_NET *419 0.00275407
*CONN
*I *1894:A I *D sky130_fd_sc_hd__clkbuf_4
*I *1840:A I *D sky130_fd_sc_hd__dlygate4sd3_1
*I *1783:Q O *D sky130_fd_sc_hd__dfrtp_1
*CAP
1 *1894:A 0.00061071
2 *1840:A 0.000142352
3 *1783:Q 0
4 *419:4 0.000753062
5 *1894:A *1632:A0 0.000367306
6 *1894:A *489:24 0.000291652
7 *1632:S *1894:A 2.89016e-05
8 *1748:A *1894:A 1.59901e-05
9 *1783:RESET_B *1840:A 2.38501e-05
10 *382:53 *1894:A 0.000291652
11 *382:72 *1840:A 0.000228592
*RES
1 *1783:Q *419:4 9.3 
2 *419:4 *1840:A 12.6214 
3 *419:4 *1894:A 31.1036 
*END

*D_NET *420 0.00550111
*CONN
*I *1695:A2 I *D sky130_fd_sc_hd__o21a_1
*I *1671:B2 I *D sky130_fd_sc_hd__a22o_1
*I *1706:A2 I *D sky130_fd_sc_hd__a21oi_1
*I *1663:B I *D sky130_fd_sc_hd__nand2_4
*I *1895:X O *D sky130_fd_sc_hd__clkbuf_2
*CAP
1 *1695:A2 0.000302192
2 *1671:B2 0.000217809
3 *1706:A2 0.000587467
4 *1663:B 4.94414e-05
5 *1895:X 0.000135274
6 *420:29 0.000870186
7 *420:16 0.00043913
8 *420:10 0.000762245
9 *1663:B *1663:A 0
10 *1663:B *493:14 4.87854e-05
11 *1671:B2 *1636:A0 0.000158564
12 *420:10 *483:32 3.08664e-05
13 *420:16 *1663:A 5.52302e-05
14 *420:16 *1695:A1 7.27282e-05
15 *420:16 *493:14 6.87574e-05
16 *420:29 *1636:A0 4.7609e-05
17 *1437:C1 *1706:A2 6.10501e-05
18 *1715:A *420:16 1.8461e-05
19 *1771:CLK *1706:A2 2.27416e-05
20 *1771:D *1706:A2 4.59352e-05
21 *1773:CLK *1695:A2 0.000102656
22 *1773:CLK *420:10 7.73758e-05
23 *1773:D *1695:A2 2.85586e-05
24 *163:134 *1706:A2 5.08076e-05
25 *359:8 *420:29 3.34366e-05
26 *381:73 *1663:B 9.80173e-05
27 *381:73 *1671:B2 8.14254e-05
28 *381:73 *1706:A2 9.87983e-06
29 *381:73 *420:16 0.000992304
30 *381:73 *420:29 3.21796e-05
*RES
1 *1895:X *420:10 16.2821 
2 *420:10 *420:16 14.5 
3 *420:16 *1663:B 10.675 
4 *420:16 *420:29 6.29464 
5 *420:29 *1706:A2 21.6304 
6 *420:29 *1671:B2 19.5411 
7 *420:10 *1695:A2 18.7286 
*END

*D_NET *421 0.00165746
*CONN
*I *1695:A1 I *D sky130_fd_sc_hd__o21a_1
*I *1826:X O *D sky130_fd_sc_hd__dlygate4sd3_1
*CAP
1 *1695:A1 0.000451225
2 *1826:X 0.000451225
3 *1773:CLK *1695:A1 0.000124869
4 *1773:RESET_B *1695:A1 0.000187465
5 *1826:A *1695:A1 0.000273269
6 *381:73 *1695:A1 3.05605e-05
7 *381:90 *1695:A1 6.61173e-05
8 *420:16 *1695:A1 7.27282e-05
*RES
1 *1826:X *1695:A1 37.1893 
*END

*D_NET *422 0.00216789
*CONN
*I *1699:A1 I *D sky130_fd_sc_hd__o21ai_1
*I *1698:A1 I *D sky130_fd_sc_hd__o21ai_1
*I *1837:X O *D sky130_fd_sc_hd__dlygate4sd3_1
*CAP
1 *1699:A1 1.42317e-05
2 *1698:A1 0.000127988
3 *1837:X 0.000594542
4 *422:14 0.000736762
5 *1698:B1 *1698:A1 3.09889e-05
6 *1698:B1 *1699:A1 1.02132e-05
7 *1698:B1 *422:14 2.36643e-05
8 *1699:B1 *1698:A1 1.35553e-05
9 *1702:A *422:14 6.11608e-05
10 *1702:B *422:14 5.49544e-05
11 *1769:D *422:14 0.000141015
12 *1769:RESET_B *422:14 9.84673e-05
13 *1770:D *1698:A1 8.25843e-06
14 *375:14 *422:14 0.000182592
15 *381:94 *422:14 2.79092e-05
16 *415:27 *422:14 4.15914e-05
*RES
1 *1837:X *422:14 29.425 
2 *422:14 *1698:A1 11.4964 
3 *422:14 *1699:A1 9.72857 
*END

*D_NET *423 0.00148091
*CONN
*I *1666:B1 I *D sky130_fd_sc_hd__o21ai_1
*I *1848:X O *D sky130_fd_sc_hd__dlygate4sd3_1
*CAP
1 *1666:B1 0.000152569
2 *1848:X 0.000152569
3 *1666:B1 *1587:B2 0.000213698
4 *1666:A1 *1666:B1 7.27536e-05
5 *1667:B1 *1666:B1 3.57366e-05
6 *303:145 *1666:B1 0.00014183
7 *306:12 *1666:B1 1.21289e-05
8 *361:42 *1666:B1 0.00069962
*RES
1 *1848:X *1666:B1 25.725 
*END

*D_NET *424 0.00272279
*CONN
*I *1636:A0 I *D sky130_fd_sc_hd__mux2_1
*I *1871:X O *D sky130_fd_sc_hd__clkbuf_1
*CAP
1 *1636:A0 0.00107027
2 *1871:X 0.00107027
3 *1636:A0 *479:12 4.0342e-06
4 *1636:A0 *479:20 1.72894e-05
5 *1636:A0 *493:12 8.00806e-05
6 *1671:B2 *1636:A0 0.000158564
7 *1729:A *1636:A0 0
8 *1786:D *1636:A0 0.000127939
9 *163:124 *1636:A0 0.000146744
10 *321:23 *1636:A0 0
11 *359:8 *1636:A0 0
12 *359:16 *1636:A0 0
13 *420:29 *1636:A0 4.7609e-05
*RES
1 *1871:X *1636:A0 48.6 
*END

*D_NET *425 0.00147423
*CONN
*I *1671:A2 I *D sky130_fd_sc_hd__a22o_1
*I *1853:X O *D sky130_fd_sc_hd__dlygate4sd3_1
*CAP
1 *1671:A2 0.000682445
2 *1853:X 0.000682445
3 *1671:A1 *1671:A2 3.49456e-06
4 *1671:B1 *1671:A2 5.08826e-05
5 *1786:D *1671:A2 5.4959e-05
*RES
1 *1853:X *1671:A2 39.7786 
*END

*D_NET *426 0.000762751
*CONN
*I *1674:B2 I *D sky130_fd_sc_hd__a2bb2o_1
*I *1854:X O *D sky130_fd_sc_hd__dlygate4sd3_1
*CAP
1 *1674:B2 0.000340263
2 *1854:X 0.000340263
3 *1674:B2 *489:24 4.29272e-05
4 *1813:CLK *1674:B2 0
5 *1854:A *1674:B2 6.05161e-06
6 *360:147 *1674:B2 0
7 *382:53 *1674:B2 4.46186e-06
8 *389:38 *1674:B2 2.87846e-05
*RES
1 *1854:X *1674:B2 32.2429 
*END

*D_NET *427 0.000723915
*CONN
*I *1701:C1 I *D sky130_fd_sc_hd__o211ai_1
*I *1855:X O *D sky130_fd_sc_hd__dlygate4sd3_1
*CAP
1 *1701:C1 8.75819e-05
2 *1855:X 8.75819e-05
3 *1701:C1 *1701:A1 6.75952e-05
4 *1701:C1 *1855:A 0.000269741
5 *1701:C1 *496:19 0.000211414
*RES
1 *1855:X *1701:C1 22.4214 
*END

*D_NET *428 0.00261848
*CONN
*I *1703:B1 I *D sky130_fd_sc_hd__o211ai_1
*I *1704:A1 I *D sky130_fd_sc_hd__o21ai_1
*I *1856:X O *D sky130_fd_sc_hd__dlygate4sd3_1
*CAP
1 *1703:B1 0.000340924
2 *1704:A1 0
3 *1856:X 0.000349001
4 *428:6 0.000689925
5 *1703:B1 *1703:A1 0.000703968
6 *1703:B1 *482:38 0.000395625
7 *428:6 *1856:A 5.52238e-05
8 *1704:B1 *1703:B1 1.10868e-05
9 *1704:B1 *428:6 7.27282e-05
*RES
1 *1856:X *428:6 14.7643 
2 *428:6 *1704:A1 9.3 
3 *428:6 *1703:B1 18.5143 
*END

*D_NET *429 0.000788585
*CONN
*I *1617:A1 I *D sky130_fd_sc_hd__a21bo_1
*I *1857:X O *D sky130_fd_sc_hd__dlygate4sd3_1
*CAP
1 *1617:A1 0.000197204
2 *1857:X 0.000197204
3 *1617:A1 *1857:A 9.84673e-05
4 *1617:A2 *1617:A1 9.41642e-05
5 *1754:A *1617:A1 0.000135842
6 *1808:D *1617:A1 6.57032e-05
*RES
1 *1857:X *1617:A1 23.2429 
*END

*D_NET *430 0.000893826
*CONN
*I *1705:A1 I *D sky130_fd_sc_hd__a21bo_1
*I *1858:X O *D sky130_fd_sc_hd__dlygate4sd3_1
*CAP
1 *1705:A1 0.000186322
2 *1858:X 0.000186322
3 *1705:A1 *1858:A 7.8195e-05
4 *1630:S *1705:A1 0.000310071
5 *1705:A2 *1705:A1 2.89114e-05
6 *1705:B1_N *1705:A1 9.79526e-05
7 *381:116 *1705:A1 6.05161e-06
*RES
1 *1858:X *1705:A1 23.6714 
*END

*D_NET *431 0.000386968
*CONN
*I *1621:A1 I *D sky130_fd_sc_hd__a22o_1
*I *1827:X O *D sky130_fd_sc_hd__dlygate4sd3_1
*CAP
1 *1621:A1 0.000160341
2 *1827:X 0.000160341
3 *1807:D *1621:A1 6.62868e-05
*RES
1 *1827:X *1621:A1 20.7964 
*END

*D_NET *432 0.000421431
*CONN
*I *1605:A1 I *D sky130_fd_sc_hd__a21o_1
*I *1828:X O *D sky130_fd_sc_hd__dlygate4sd3_1
*CAP
1 *1605:A1 0.00014988
2 *1828:X 0.00014988
3 *1605:A2 *1605:A1 8.00806e-05
4 *359:20 *1605:A1 4.15914e-05
*RES
1 *1828:X *1605:A1 30.7429 
*END

*D_NET *433 0.00182573
*CONN
*I *1595:A1 I *D sky130_fd_sc_hd__a22o_1
*I *1829:X O *D sky130_fd_sc_hd__dlygate4sd3_1
*CAP
1 *1595:A1 0.000807806
2 *1829:X 0.000807806
3 *1595:A1 *472:12 3.75868e-05
4 *1595:A2 *1595:A1 2.59355e-05
5 *1812:CLK *1595:A1 4.57857e-05
6 *1812:D *1595:A1 4.13811e-05
7 *1812:RESET_B *1595:A1 2.74795e-05
8 *385:100 *1595:A1 3.19472e-05
*RES
1 *1829:X *1595:A1 37.8143 
*END

*D_NET *434 0.00147986
*CONN
*I *1668:B2 I *D sky130_fd_sc_hd__a32o_1
*I *1830:X O *D sky130_fd_sc_hd__dlygate4sd3_1
*CAP
1 *1668:B2 0.000161702
2 *1830:X 0.000161702
3 *1668:B2 *1668:A3 0.000549185
4 *1668:B1 *1668:B2 0.00031344
5 *1671:A1 *1668:B2 0.000252243
6 *256:59 *1668:B2 4.15914e-05
*RES
1 *1830:X *1668:B2 34.4214 
*END

*D_NET *435 0.00078564
*CONN
*I *1634:A0 I *D sky130_fd_sc_hd__mux2_1
*I *1872:X O *D sky130_fd_sc_hd__clkbuf_1
*CAP
1 *1634:A0 0.000349002
2 *1872:X 0.000349002
3 *1635:A *1634:A0 3.18676e-05
4 *1802:D *1634:A0 5.39166e-06
5 *1872:A *1634:A0 5.03772e-05
*RES
1 *1872:X *1634:A0 22.8321 
*END

*D_NET *436 0.000472472
*CONN
*I *1576:A1 I *D sky130_fd_sc_hd__a22o_1
*I *1831:X O *D sky130_fd_sc_hd__dlygate4sd3_1
*CAP
1 *1576:A1 0.000114069
2 *1831:X 0.000114069
3 *1576:A1 *1681:A0 7.83659e-05
4 *1576:A1 *462:23 3.92854e-05
5 *1576:B1 *1576:A1 1.55885e-05
6 *1576:B2 *1576:A1 3.57366e-05
7 *278:42 *1576:A1 7.53583e-05
*RES
1 *1831:X *1576:A1 30.0107 
*END

*D_NET *437 0.00046573
*CONN
*I *1626:A1 I *D sky130_fd_sc_hd__a22o_1
*I *1832:X O *D sky130_fd_sc_hd__dlygate4sd3_1
*CAP
1 *1626:A1 0.000168407
2 *1832:X 0.000168407
3 *1806:D *1626:A1 7.74068e-05
4 *259:141 *1626:A1 4.45646e-05
5 *314:40 *1626:A1 6.94441e-06
*RES
1 *1832:X *1626:A1 30.7071 
*END

*D_NET *438 0.000430163
*CONN
*I *1610:A1 I *D sky130_fd_sc_hd__a22o_1
*I *1833:X O *D sky130_fd_sc_hd__dlygate4sd3_1
*CAP
1 *1610:A1 0.000148182
2 *1833:X 0.000148182
3 *388:65 *1610:A1 0.000133798
*RES
1 *1833:X *1610:A1 20.7964 
*END

*D_NET *439 0.00180822
*CONN
*I *1687:A1 I *D sky130_fd_sc_hd__mux2_1
*I *1834:X O *D sky130_fd_sc_hd__dlygate4sd3_1
*CAP
1 *1687:A1 0.000507853
2 *1834:X 0.000507853
3 *1687:A1 *1687:A0 0.000101346
4 *1687:S *1687:A1 0.000122812
5 *1720:A *1687:A1 0
6 *1777:RESET_B *1687:A1 0
7 *266:67 *1687:A1 0
8 *303:63 *1687:A1 0.000568356
*RES
1 *1834:X *1687:A1 35.6179 
*END

*D_NET *440 0.00107369
*CONN
*I *1672:A1 I *D sky130_fd_sc_hd__mux2_1
*I *1835:X O *D sky130_fd_sc_hd__dlygate4sd3_1
*CAP
1 *1672:A1 0.000224327
2 *1835:X 0.000224327
3 *1672:S *1672:A1 5.71472e-05
4 *1883:A *1672:A1 0.00031119
5 *382:117 *1672:A1 0.000256698
*RES
1 *1835:X *1672:A1 24.8857 
*END

*D_NET *441 0.000856436
*CONN
*I *1681:A1 I *D sky130_fd_sc_hd__mux2_1
*I *1836:X O *D sky130_fd_sc_hd__dlygate4sd3_1
*CAP
1 *1681:A1 0.00028565
2 *1836:X 0.00028565
3 *1681:A1 *1681:A0 0.000129868
4 *1679:S *1681:A1 1.84865e-05
5 *1891:A *1681:A1 0.000102659
6 *360:168 *1681:A1 3.01245e-06
7 *416:6 *1681:A1 3.11088e-05
*RES
1 *1836:X *1681:A1 32.2429 
*END

*D_NET *442 0.0012351
*CONN
*I *1677:A1 I *D sky130_fd_sc_hd__mux2_1
*I *1838:X O *D sky130_fd_sc_hd__dlygate4sd3_1
*CAP
1 *1677:A1 0.000376142
2 *1838:X 0.000376142
3 *1670:A *1677:A1 0.000357255
4 *1787:D *1677:A1 7.70035e-05
5 *314:109 *1677:A1 3.47956e-06
6 *338:32 *1677:A1 0
7 *360:41 *1677:A1 4.50796e-05
*RES
1 *1838:X *1677:A1 33.4929 
*END

*D_NET *443 0.00118043
*CONN
*I *1685:A1 I *D sky130_fd_sc_hd__mux2_1
*I *1839:X O *D sky130_fd_sc_hd__dlygate4sd3_1
*CAP
1 *1685:A1 0.000549356
2 *1839:X 0.000549356
3 *1839:A *1685:A1 8.17141e-05
*RES
1 *1839:X *1685:A1 24.8857 
*END

*D_NET *444 0.00161699
*CONN
*I *1675:A1 I *D sky130_fd_sc_hd__mux2_1
*I *1840:X O *D sky130_fd_sc_hd__dlygate4sd3_1
*CAP
1 *1675:A1 0.00043974
2 *1840:X 0.00043974
3 *1617:B1_N *1675:A1 6.15171e-05
4 *1675:A0 *1675:A1 0.000657687
5 *1808:D *1675:A1 1.83053e-05
*RES
1 *1840:X *1675:A1 36.3679 
*END

*D_NET *445 0.00120279
*CONN
*I *1561:A1 I *D sky130_fd_sc_hd__a22o_1
*I *1841:X O *D sky130_fd_sc_hd__dlygate4sd3_1
*CAP
1 *1561:A1 0.000351471
2 *1841:X 0.000351471
3 *1552:A *1561:A1 3.9733e-05
4 *259:18 *1561:A1 0.000315812
5 *278:20 *1561:A1 0.000144305
*RES
1 *1841:X *1561:A1 34.5286 
*END

*D_NET *446 0.0017627
*CONN
*I *1632:A0 I *D sky130_fd_sc_hd__mux2_1
*I *1873:X O *D sky130_fd_sc_hd__clkbuf_1
*CAP
1 *1632:A0 0.000631423
2 *1873:X 0.000631423
3 *1633:A *1632:A0 2.27416e-05
4 *1803:CLK *1632:A0 0.000109809
5 *1803:D *1632:A0 0
6 *1894:A *1632:A0 0.000367306
*RES
1 *1873:X *1632:A0 41.0643 
*END

*D_NET *447 0.000938914
*CONN
*I *1691:A1 I *D sky130_fd_sc_hd__mux2_1
*I *1842:X O *D sky130_fd_sc_hd__dlygate4sd3_1
*CAP
1 *1691:A1 0.000309715
2 *1842:X 0.000309715
3 *1691:A1 *1691:A0 4.62544e-05
4 *1691:S *1691:A1 5.49489e-05
5 *1806:CLK *1691:A1 0.000139344
6 *409:14 *1691:A1 7.89362e-05
*RES
1 *1842:X *1691:A1 33.3143 
*END

*D_NET *448 0.000316004
*CONN
*I *1693:A1 I *D sky130_fd_sc_hd__mux2_1
*I *1843:X O *D sky130_fd_sc_hd__dlygate4sd3_1
*CAP
1 *1693:A1 0.000131749
2 *1843:X 0.000131749
3 *1693:A1 *1693:A0 3.08664e-05
4 *381:14 *1693:A1 2.16394e-05
5 *403:12 *1693:A1 0
*RES
1 *1843:X *1693:A1 29.5821 
*END

*D_NET *449 0.00143776
*CONN
*I *1679:A1 I *D sky130_fd_sc_hd__mux2_1
*I *1844:X O *D sky130_fd_sc_hd__dlygate4sd3_1
*CAP
1 *1679:A1 0.000645904
2 *1844:X 0.000645904
3 *1679:A1 *1560:A1 2.46518e-05
4 *1679:S *1679:A1 4.1219e-05
5 *1818:CLK *1679:A1 8.00806e-05
*RES
1 *1844:X *1679:A1 37.8321 
*END

*D_NET *450 0.00169687
*CONN
*I *1689:A1 I *D sky130_fd_sc_hd__mux2_1
*I *1845:X O *D sky130_fd_sc_hd__dlygate4sd3_1
*CAP
1 *1689:A1 0.000513704
2 *1845:X 0.000513704
3 *1718:A *1689:A1 5.49544e-05
4 *1776:RESET_B *1689:A1 0.000230855
5 *1845:A *1689:A1 0.000275936
6 *339:20 *1689:A1 2.79092e-05
7 *339:22 *1689:A1 5.41494e-05
8 *359:22 *1689:A1 2.56601e-05
*RES
1 *1845:X *1689:A1 37.8143 
*END

*D_NET *451 0.00135599
*CONN
*I *1600:A1 I *D sky130_fd_sc_hd__a22o_1
*I *1846:X O *D sky130_fd_sc_hd__dlygate4sd3_1
*CAP
1 *1600:A1 0.000448554
2 *1846:X 0.000448554
3 *1600:A2 *1600:A1 3.11088e-05
4 *1755:A *1600:A1 0.000136304
5 *1779:CLK *1600:A1 6.05161e-06
6 *1811:D *1600:A1 5.50052e-05
7 *1811:RESET_B *1600:A1 5.49995e-05
8 *385:108 *1600:A1 0.000143633
9 *388:94 *1600:A1 3.17784e-05
*RES
1 *1846:X *1600:A1 36.4571 
*END

*D_NET *452 0.00220819
*CONN
*I *1524:A I *D sky130_fd_sc_hd__inv_2
*I *1847:X O *D sky130_fd_sc_hd__dlygate4sd3_1
*CAP
1 *1524:A 0.000610278
2 *1847:X 0.000610278
3 *1765:A *1524:A 0.000545459
4 *161:86 *1524:A 0.000100074
5 *380:103 *1524:A 0.0003421
6 *398:12 *1524:A 0
*RES
1 *1847:X *1524:A 40.6714 
*END

*D_NET *453 0.00155326
*CONN
*I *1587:B2 I *D sky130_fd_sc_hd__a2bb2o_1
*I *1849:X O *D sky130_fd_sc_hd__dlygate4sd3_1
*CAP
1 *1587:B2 0.00013922
2 *1849:X 0.00013922
3 *1666:B1 *1587:B2 0.000213698
4 *306:12 *1587:B2 0.000790938
5 *361:42 *1587:B2 0.00027018
*RES
1 *1849:X *1587:B2 26.1179 
*END

*D_NET *454 0.00115206
*CONN
*I *1669:A1 I *D sky130_fd_sc_hd__mux2_1
*I *1850:X O *D sky130_fd_sc_hd__dlygate4sd3_1
*CAP
1 *1669:A1 0.000227638
2 *1850:X 0.000227638
3 *1649:A1 *1669:A1 0.000108229
4 *1672:A0 *1669:A1 0.000489523
5 *360:41 *1669:A1 9.90367e-05
*RES
1 *1850:X *1669:A1 24.475 
*END

*D_NET *455 0.00174429
*CONN
*I *1701:A1 I *D sky130_fd_sc_hd__o211ai_1
*I *1851:X O *D sky130_fd_sc_hd__dlygate4sd3_1
*CAP
1 *1701:A1 0.000455506
2 *1851:X 0.000455506
3 *1701:A1 *1665:A 3.40728e-05
4 *1701:A1 *1697:A 4.23557e-05
5 *1701:A1 *1855:A 5.49995e-05
6 *1701:A1 *495:38 0.000408072
7 *1701:A1 *496:19 6.93704e-06
8 *1701:B1 *1701:A1 5.33005e-05
9 *1701:C1 *1701:A1 6.75952e-05
10 *381:100 *1701:A1 6.3674e-06
11 *400:22 *1701:A1 2.51343e-06
12 *415:27 *1701:A1 0.000157066
*RES
1 *1851:X *1701:A1 37.3857 
*END

*D_NET *456 0.00119137
*CONN
*I *1703:A1 I *D sky130_fd_sc_hd__o211ai_1
*I *1852:X O *D sky130_fd_sc_hd__dlygate4sd3_1
*CAP
1 *1703:A1 0.000152997
2 *1852:X 0.000152997
3 *1703:B1 *1703:A1 0.000703968
4 *1704:B1 *1703:A1 0.000181406
*RES
1 *1852:X *1703:A1 24.0643 
*END

*D_NET *457 0.00184911
*CONN
*I *1630:A0 I *D sky130_fd_sc_hd__mux2_1
*I *1874:X O *D sky130_fd_sc_hd__clkbuf_1
*CAP
1 *1630:A0 0.000331285
2 *1874:X 0.000331285
3 *1630:A0 *482:14 7.3237e-05
4 *1630:A0 *482:38 1.55885e-05
5 *395:10 *1630:A0 0.000239303
6 *395:14 *1630:A0 0.000204424
7 *415:27 *1630:A0 0.000653983
*RES
1 *1874:X *1630:A0 37.6893 
*END

*D_NET *458 0.0030035
*CONN
*I *1668:A3 I *D sky130_fd_sc_hd__a32o_1
*I *1877:X O *D sky130_fd_sc_hd__clkbuf_1
*CAP
1 *1668:A3 0.00109087
2 *1877:X 0.00109087
3 *1668:A2 *1668:A3 3.63587e-05
4 *1668:B1 *1668:A3 3.14176e-05
5 *1668:B2 *1668:A3 0.000549185
6 *1770:CLK *1668:A3 0.000142856
7 *1812:RESET_B *1668:A3 1.431e-05
8 *162:22 *1668:A3 6.05161e-06
9 *358:14 *1668:A3 4.15914e-05
*RES
1 *1877:X *1668:A3 46.4929 
*END

*D_NET *459 0.00217953
*CONN
*I *1628:A0 I *D sky130_fd_sc_hd__mux2_1
*I *1875:X O *D sky130_fd_sc_hd__clkbuf_1
*CAP
1 *1628:A0 0.000823673
2 *1875:X 0.000823673
3 *1628:S *1628:A0 0
4 *1773:RESET_B *1628:A0 0
5 *1882:A *1628:A0 0
6 *381:90 *1628:A0 0
7 *415:27 *1628:A0 0.000532184
*RES
1 *1875:X *1628:A0 46.5464 
*END

*D_NET *460 0.00739336
*CONN
*I *1661:A1 I *D sky130_fd_sc_hd__a31o_1
*I *1876:X O *D sky130_fd_sc_hd__clkbuf_1
*CAP
1 *1661:A1 0.000528026
2 *1876:X 0.00176528
3 *460:10 0.0022933
4 *460:10 *1518:A 0.00043428
5 *460:10 *1519:A 0.000325374
6 *460:10 *1521:A1 5.31122e-05
7 *1433:B1 *460:10 0.000267643
8 *1473:B1 *460:10 9.2164e-05
9 *1474:A2 *460:10 2.53834e-05
10 *1521:C1 *460:10 6.92626e-05
11 *1525:A1 *460:10 0
12 *1525:B2 *460:10 6.57499e-06
13 *1525:C1 *460:10 1.1594e-05
14 *1542:A2_N *460:10 0
15 *1547:A2 *460:10 0
16 *1548:B1 *460:10 0.000146474
17 *1549:A2 *460:10 0
18 *1764:A *460:10 0
19 *1818:RESET_B *460:10 0
20 *1876:A *460:10 3.18676e-05
21 *158:19 *460:10 4.51723e-05
22 *159:21 *460:10 0.000100376
23 *160:35 *460:10 0.000120129
24 *162:112 *460:10 0
25 *200:25 *460:10 0.000214565
26 *200:44 *460:10 6.19181e-05
27 *205:18 *1661:A1 0.000396617
28 *245:12 *460:10 0.000268657
29 *246:16 *460:10 0
30 *251:16 *460:10 0
31 *303:115 *1661:A1 8.02984e-05
32 *303:133 *1661:A1 3.50746e-05
33 *380:103 *460:10 2.02189e-05
*RES
1 *1876:X *460:10 49.6929 
2 *460:10 *1661:A1 21.2286 
*END

*D_NET *461 0.00388299
*CONN
*I *1832:A I *D sky130_fd_sc_hd__dlygate4sd3_1
*I *1645:B2 I *D sky130_fd_sc_hd__a2bb2o_1
*I *1623:A1 I *D sky130_fd_sc_hd__o32a_1
*I *1493:A I *D sky130_fd_sc_hd__or2_1
*I *1624:A1 I *D sky130_fd_sc_hd__o21ai_1
*I *1806:Q O *D sky130_fd_sc_hd__dfrtp_1
*CAP
1 *1832:A 4.90823e-05
2 *1645:B2 0.000183942
3 *1623:A1 4.79727e-05
4 *1493:A 1.46798e-05
5 *1624:A1 7.30542e-05
6 *1806:Q 0
7 *461:33 0.000127254
8 *461:27 0.000351063
9 *461:14 0.000688013
10 *461:4 0.000561521
11 *1624:A1 *467:31 6.54847e-05
12 *1832:A *1691:A0 3.11088e-05
13 *461:33 *480:33 3.97677e-05
14 *1493:B *1493:A 5.7661e-06
15 *1621:B1 *461:14 3.3151e-05
16 *1623:A2 *1493:A 0
17 *1624:A2 *461:14 3.34295e-05
18 *1624:A2 *461:27 9.22948e-05
19 *1624:A2 *461:33 6.05161e-06
20 *1624:B1 *1623:A1 0.000224168
21 *1624:B1 *461:14 2.61337e-05
22 *1624:B1 *461:27 1.18064e-05
23 *1624:B1 *461:33 1.24368e-05
24 *1625:A2 *1645:B2 0.000157151
25 *1625:A2 *461:27 0.000149911
26 *1625:A3 *1624:A1 0
27 *1645:B1 *1645:B2 0.000101341
28 *1806:D *1832:A 5.50052e-05
29 *1806:D *461:14 7.22686e-05
30 *163:49 *461:14 3.49187e-05
31 *163:51 *1832:A 4.06003e-05
32 *163:51 *461:14 0.000316535
33 *217:16 *1493:A 1.04232e-05
34 *217:16 *1623:A1 0.000197136
35 *217:16 *461:33 4.58194e-05
36 *338:10 *1832:A 2.37005e-05
37 *383:48 *1645:B2 0
38 *383:48 *461:14 0
39 *383:48 *461:27 0
*RES
1 *1806:Q *461:4 9.3 
2 *461:4 *461:14 14.0357 
3 *461:14 *1624:A1 15.175 
4 *461:14 *461:27 2.25 
5 *461:27 *461:33 5.875 
6 *461:33 *1493:A 9.72857 
7 *461:33 *1623:A1 11.4786 
8 *461:27 *1645:B2 18.175 
9 *461:4 *1832:A 19.8714 
*END

*D_NET *462 0.00475332
*CONN
*I *1575:A1 I *D sky130_fd_sc_hd__o31a_1
*I *1438:A2 I *D sky130_fd_sc_hd__o41a_1
*I *1562:C_N I *D sky130_fd_sc_hd__or3b_1
*I *1515:A I *D sky130_fd_sc_hd__xor2_2
*I *1571:C_N I *D sky130_fd_sc_hd__or3b_1
*I *1816:Q O *D sky130_fd_sc_hd__dfrtp_2
*CAP
1 *1575:A1 3.04135e-05
2 *1438:A2 0
3 *1562:C_N 0.000198555
4 *1515:A 7.11761e-05
5 *1571:C_N 0
6 *1816:Q 0.000134141
7 *462:32 0.000355473
8 *462:23 0.00038664
9 *462:19 0.000428183
10 *462:8 0.000373364
11 *1515:A *1438:A3 0.000135028
12 *462:19 *1681:A0 0.000121902
13 *462:23 *1681:A0 2.7814e-05
14 *462:32 *1438:A3 0.000519067
15 *1438:B1 *462:32 0.000306914
16 *1515:B *462:32 4.70821e-05
17 *1562:A *1562:C_N 0.00011498
18 *1568:A1 *462:19 0.000143161
19 *1570:A1 *462:19 0.000121858
20 *1571:A *462:19 7.27884e-05
21 *1574:A1 *1562:C_N 8.35313e-05
22 *1576:A1 *462:23 3.92854e-05
23 *1616:B1 *1562:C_N 0
24 *1679:A0 *1562:C_N 0.000217618
25 *1816:D *462:8 9.57995e-05
26 *1816:D *462:19 7.36469e-05
27 *149:70 *462:19 5.59013e-05
28 *149:70 *462:23 0.000358229
29 *165:10 *462:32 4.51611e-05
30 *254:82 *462:23 5.15925e-05
31 *254:99 *462:32 2.14658e-05
32 *278:61 *462:23 6.9253e-05
33 *381:52 *1575:A1 5.33005e-05
*RES
1 *1816:Q *462:8 12.3179 
2 *462:8 *1571:C_N 9.3 
3 *462:8 *462:19 10.8393 
4 *462:19 *462:23 9.17857 
5 *462:23 *1515:A 10.6571 
6 *462:23 *462:32 5.46429 
7 *462:32 *1562:C_N 22.9429 
8 *462:32 *1438:A2 9.3 
9 *462:19 *1575:A1 14.3357 
*END

*D_NET *463 0.00672261
*CONN
*I *1438:A1 I *D sky130_fd_sc_hd__o41a_1
*I *1514:A I *D sky130_fd_sc_hd__xor2_2
*I *1569:A1 I *D sky130_fd_sc_hd__o31a_1
*I *1841:A I *D sky130_fd_sc_hd__dlygate4sd3_1
*I *1817:Q O *D sky130_fd_sc_hd__dfrtp_2
*CAP
1 *1438:A1 0.000428614
2 *1514:A 7.68084e-05
3 *1569:A1 6.35022e-05
4 *1841:A 0.000144032
5 *1817:Q 9.22451e-05
6 *463:29 0.000352779
7 *463:23 0.00143772
8 *463:8 0.00103292
9 *1514:B *463:29 1.50223e-05
10 *1551:A *1841:A 2.06112e-05
11 *1552:A *1841:A 0
12 *1559:B2 *1438:A1 5.80706e-06
13 *1567:A *1569:A1 5.36422e-05
14 *1569:B1 *463:29 4.75956e-06
15 *1570:B1 *1569:A1 4.41092e-05
16 *1570:B1 *463:29 4.69896e-05
17 *1571:B *1514:A 4.97967e-05
18 *1571:B *1841:A 0.000100074
19 *1571:B *463:23 0.00120317
20 *1571:B *463:29 0.000201468
21 *1572:A *1514:A 5.04841e-06
22 *1679:A0 *1438:A1 0.000820916
23 *1816:D *1514:A 3.08382e-06
24 *1817:D *1841:A 0
25 *1818:D *463:8 1.95368e-05
26 *149:104 *1569:A1 0.000145409
27 *149:104 *463:29 8.6229e-06
28 *162:126 *463:29 1.62193e-05
29 *241:12 *1438:A1 0
30 *285:12 *1438:A1 0.000329701
*RES
1 *1817:Q *463:8 15.4429 
2 *463:8 *1841:A 16.6036 
3 *463:8 *463:23 16.125 
4 *463:23 *463:29 8.01786 
5 *463:29 *1569:A1 15.7464 
6 *463:29 *1514:A 15.175 
7 *463:23 *1438:A1 29.05 
*END

*D_NET *464 0.00335858
*CONN
*I *1519:A I *D sky130_fd_sc_hd__inv_2
*I *1560:A1 I *D sky130_fd_sc_hd__o31a_1
*I *1818:Q O *D sky130_fd_sc_hd__dfrtp_1
*CAP
1 *1519:A 0.000211188
2 *1560:A1 0.000937285
3 *1818:Q 8.98191e-05
4 *464:6 0.00123829
5 *1552:A *1519:A 0
6 *1552:B *1519:A 1.30833e-05
7 *1679:A1 *1560:A1 2.46518e-05
8 *1724:A *1560:A1 0
9 *1764:A *1519:A 0
10 *1781:CLK *1560:A1 0
11 *1817:D *1560:A1 9.14171e-05
12 *1818:D *1560:A1 0.000113045
13 *1818:RESET_B *1560:A1 2.74795e-05
14 *162:126 *1560:A1 1.90936e-05
15 *245:12 *1519:A 0.000143468
16 *246:8 *1519:A 2.85234e-05
17 *266:161 *1519:A 9.58632e-05
18 *460:10 *1519:A 0.000325374
*RES
1 *1818:Q *464:6 10.2464 
2 *464:6 *1560:A1 31.0143 
3 *464:6 *1519:A 23.6214 
*END

*D_NET *465 0.00292634
*CONN
*I *1847:A I *D sky130_fd_sc_hd__dlygate4sd3_1
*I *1518:A I *D sky130_fd_sc_hd__xor2_1
*I *1819:Q O *D sky130_fd_sc_hd__dfrtp_1
*CAP
1 *1847:A 5.61417e-05
2 *1518:A 0.00102785
3 *1819:Q 0
4 *465:4 0.00108399
5 *1818:CLK *1518:A 0.000106467
6 *1819:D *1518:A 0
7 *1819:RESET_B *1518:A 6.14505e-05
8 *1819:RESET_B *1847:A 5.65955e-05
9 *380:103 *1518:A 3.10819e-05
10 *390:139 *1518:A 6.84903e-05
11 *460:10 *1518:A 0.00043428
*RES
1 *1819:Q *465:4 9.3 
2 *465:4 *1518:A 34.2821 
3 *465:4 *1847:A 10.5679 
*END

*D_NET *466 0.00498932
*CONN
*I *1532:B2 I *D sky130_fd_sc_hd__a2bb2o_1
*I *1526:A1 I *D sky130_fd_sc_hd__a22oi_1
*I *1534:A1 I *D sky130_fd_sc_hd__o31a_1
*I *1535:A I *D sky130_fd_sc_hd__xor2_1
*I *1437:B2 I *D sky130_fd_sc_hd__o221ai_1
*I *1820:Q O *D sky130_fd_sc_hd__dfrtp_2
*CAP
1 *1532:B2 0
2 *1526:A1 0.000129433
3 *1534:A1 0.000171238
4 *1535:A 0.000174763
5 *1437:B2 0
6 *1820:Q 0.000518081
7 *466:57 0.000228515
8 *466:20 0.000260413
9 *466:18 0.000630902
10 *466:14 0.000991178
11 *1526:A2 *1526:A1 2.1768e-05
12 *1526:B2 *1535:A 9.58181e-05
13 *1532:A2_N *1526:A1 0
14 *1532:B1 *1526:A1 0.000102545
15 *1534:A2 *1534:A1 3.60088e-05
16 *1534:A3 *466:14 5.63746e-05
17 *1534:A3 *466:57 4.58699e-05
18 *1534:B1 *1534:A1 4.24111e-05
19 *1594:A2 *1535:A 0.000167609
20 *1594:A3 *1526:A1 1.41029e-05
21 *1594:A3 *466:57 2.84398e-05
22 *1820:D *466:57 0
23 *161:86 *1534:A1 0.000204168
24 *161:86 *466:20 0.000149345
25 *162:89 *466:14 0.00012249
26 *252:25 *1535:A 1.00332e-05
27 *261:10 *1535:A 3.40979e-05
28 *266:155 *1534:A1 7.48927e-06
29 *266:155 *1535:A 0
30 *278:111 *466:14 0.000224582
31 *278:111 *466:18 0.000521645
32 *398:12 *1526:A1 0
*RES
1 *1820:Q *466:14 26.0321 
2 *466:14 *466:18 9.55357 
3 *466:18 *466:20 1.94643 
4 *466:20 *1437:B2 13.8 
5 *466:20 *1535:A 17.5321 
6 *466:18 *1534:A1 17.6214 
7 *466:14 *466:57 6.44643 
8 *466:57 *1526:A1 16.4071 
9 *466:57 *1532:B2 13.8 
*END

*D_NET *467 0.00188172
*CONN
*I *1488:A I *D sky130_fd_sc_hd__inv_2
*I *1625:A1 I *D sky130_fd_sc_hd__a32o_1
*I *1827:A I *D sky130_fd_sc_hd__dlygate4sd3_1
*I *1807:Q O *D sky130_fd_sc_hd__dfrtp_1
*CAP
1 *1488:A 7.4944e-05
2 *1625:A1 0
3 *1827:A 0.000130371
4 *1807:Q 0
5 *467:31 0.00041668
6 *467:4 0.000472107
7 *1624:A1 *467:31 6.54847e-05
8 *1624:B1 *467:31 5.52238e-05
9 *1625:A2 *467:31 6.79366e-05
10 *1625:A3 *467:31 4.72931e-05
11 *1625:B1 *1488:A 2.57162e-05
12 *1625:B2 *1488:A 7.32955e-05
13 *1625:B2 *467:31 0.000189078
14 *1807:D *1827:A 0.000221013
15 *1807:RESET_B *1827:A 0
16 *383:48 *1827:A 4.25809e-05
*RES
1 *1807:Q *467:4 9.3 
2 *467:4 *1827:A 21.3 
3 *467:4 *467:31 8.14286 
4 *467:31 *1625:A1 9.3 
5 *467:31 *1488:A 11.0679 
*END

*D_NET *468 0.00528727
*CONN
*I *1486:A_N I *D sky130_fd_sc_hd__nand3b_1
*I *1612:C I *D sky130_fd_sc_hd__and3_1
*I *1620:A1 I *D sky130_fd_sc_hd__a32o_1
*I *1482:C I *D sky130_fd_sc_hd__nand3_1
*I *1857:A I *D sky130_fd_sc_hd__dlygate4sd3_1
*I *1808:Q O *D sky130_fd_sc_hd__dfrtp_1
*CAP
1 *1486:A_N 0.000186256
2 *1612:C 0
3 *1620:A1 7.33963e-05
4 *1482:C 0
5 *1857:A 0.000167234
6 *1808:Q 0
7 *468:53 0.000493513
8 *468:36 0.000781585
9 *468:21 0.000753448
10 *468:4 0.00051975
11 *1482:A *468:36 0.000123891
12 *1486:C *1486:A_N 3.50746e-05
13 *1500:A *468:36 0.000195703
14 *1612:A *1486:A_N 7.72319e-05
15 *1612:A *468:53 6.04072e-05
16 *1615:B1 *468:36 5.66971e-05
17 *1617:A1 *1857:A 9.84673e-05
18 *1617:A2 *1857:A 0.000232735
19 *1618:B1 *468:36 4.41329e-06
20 *1618:B2 *468:53 9.67754e-05
21 *1619:A1 *468:36 9.94068e-05
22 *1619:A2 *468:36 2.37944e-05
23 *1620:B1 *1620:A1 7.842e-05
24 *1620:B1 *468:53 4.17702e-05
25 *1621:B1 *1620:A1 2.14318e-05
26 *1754:A *1857:A 0.000100165
27 *1808:RESET_B *1857:A 0
28 *1808:RESET_B *468:21 0.000145197
29 *148:45 *468:53 9.58689e-05
30 *153:27 *468:53 0.000124019
31 *213:8 *1486:A_N 0.000207026
32 *213:8 *468:53 2.93936e-05
33 *228:6 *468:36 3.45371e-05
34 *254:63 *468:36 0.000176478
35 *263:43 *468:53 0.00012249
36 *339:61 *468:53 3.06972e-05
37 *383:48 *1857:A 0
*RES
1 *1808:Q *468:4 9.3 
2 *468:4 *1857:A 22.7107 
3 *468:4 *468:21 4.66071 
4 *468:21 *1482:C 9.3 
5 *468:21 *468:36 17.9286 
6 *468:36 *1620:A1 10.6571 
7 *468:36 *468:53 15.0714 
8 *468:53 *1612:C 9.3 
9 *468:53 *1486:A_N 13.4786 
*END

*D_NET *469 0.013528
*CONN
*I *1611:B1 I *D sky130_fd_sc_hd__a21oi_1
*I *1499:B I *D sky130_fd_sc_hd__nand3_1
*I *1616:A1 I *D sky130_fd_sc_hd__o211ai_1
*I *1502:B1 I *D sky130_fd_sc_hd__a21o_2
*I *1833:A I *D sky130_fd_sc_hd__dlygate4sd3_1
*I *1809:Q O *D sky130_fd_sc_hd__dfrtp_2
*CAP
1 *1611:B1 6.76731e-05
2 *1499:B 0.00011076
3 *1616:A1 0.000134938
4 *1502:B1 1.7744e-05
5 *1833:A 0.000524057
6 *1809:Q 0
7 *469:70 0.000400622
8 *469:60 0.000458292
9 *469:47 0.000926163
10 *469:37 0.00256759
11 *469:4 0.00241892
12 *1833:A *1683:A0 3.82806e-05
13 *469:37 *1683:A0 3.83493e-06
14 *469:37 *470:46 0.000238379
15 *469:47 *484:10 0.000294678
16 *1457:A2 *469:37 0.00017309
17 *1458:C1 *469:37 1.60899e-05
18 *1496:C1 *469:47 0.000303396
19 *1498:A *469:47 6.43824e-05
20 *1499:A *1499:B 2.35827e-05
21 *1499:A *469:70 9.97669e-05
22 *1506:A2 *469:37 1.21258e-05
23 *1507:C *469:37 0.00048709
24 *1600:A2 *469:37 1.25366e-05
25 *1600:B2 *469:37 0.000124749
26 *1604:B1 *469:37 9.60875e-05
27 *1607:B1 *469:37 0.000266092
28 *1608:A *469:37 0.000171368
29 *1608:C *469:37 1.3142e-05
30 *1609:A2 *469:37 0.000194833
31 *1609:B1 *469:37 0
32 *1611:A2 *1502:B1 3.91683e-06
33 *1611:A2 *1611:B1 2.01186e-05
34 *1611:A2 *469:60 1.84046e-05
35 *1615:B2 *1499:B 7.13481e-06
36 *1615:B2 *1616:A1 0
37 *1615:B2 *469:70 9.41642e-05
38 *1616:B1 *1616:A1 5.33005e-05
39 *1616:C1 *1616:A1 7.12246e-05
40 *1809:D *1833:A 2.84026e-05
41 *1809:RESET_B *1833:A 3.2923e-05
42 *148:35 *469:37 6.96374e-05
43 *148:39 *469:37 0.000267926
44 *149:20 *469:37 0.000535448
45 *163:61 *1833:A 5.66472e-05
46 *178:33 *469:37 2.88945e-05
47 *223:18 *1502:B1 5.04841e-06
48 *223:18 *469:47 4.73286e-05
49 *223:18 *469:60 2.18269e-05
50 *225:14 *469:47 0.000692768
51 *226:14 *1611:B1 0
52 *229:10 *469:60 9.66977e-05
53 *229:16 *469:47 4.40153e-05
54 *234:6 *469:37 9.22103e-06
55 *263:43 *1499:B 0.00026695
56 *314:29 *1499:B 1.00375e-05
57 *314:29 *469:70 5.41054e-05
58 *317:18 *469:37 0
59 *325:14 *1833:A 0
60 *325:14 *469:37 0.000432822
61 *331:8 *1616:A1 0.00017947
62 *408:26 *469:37 0.00011929
*RES
1 *1809:Q *469:4 9.3 
2 *469:4 *1833:A 25.8179 
3 *469:4 *469:37 46.5714 
4 *469:37 *469:47 25.4821 
5 *469:47 *1502:B1 9.72857 
6 *469:47 *469:60 3.75 
7 *469:60 *469:70 13.8571 
8 *469:70 *1616:A1 12.3179 
9 *469:70 *1499:B 22.425 
10 *469:60 *1611:B1 10.9786 
*END

*D_NET *470 0.00756533
*CONN
*I *1828:A I *D sky130_fd_sc_hd__dlygate4sd3_1
*I *1459:B1 I *D sky130_fd_sc_hd__o21ai_1
*I *1609:A1 I *D sky130_fd_sc_hd__a31o_1
*I *1504:B1 I *D sky130_fd_sc_hd__a31o_1
*I *1507:B I *D sky130_fd_sc_hd__nand3_2
*I *1810:Q O *D sky130_fd_sc_hd__dfrtp_2
*CAP
1 *1828:A 0
2 *1459:B1 0
3 *1609:A1 0
4 *1504:B1 0
5 *1507:B 0.0002955
6 *1810:Q 0.000547375
7 *470:46 0.000662815
8 *470:36 0.000512589
9 *470:26 0.00106154
10 *470:12 0.00146364
11 *470:46 *480:75 0
12 *470:46 *480:88 0
13 *1457:A1 *470:36 4.38168e-05
14 *1457:A1 *470:46 7.20217e-06
15 *1457:A2 *470:36 7.4247e-05
16 *1457:A2 *470:46 6.05161e-06
17 *1457:B1 *470:26 5.71472e-05
18 *1458:C1 *470:46 9.25014e-06
19 *1465:A2 *470:26 6.17358e-05
20 *1507:C *1507:B 5.90821e-05
21 *1508:A1 *470:26 7.5105e-05
22 *1508:A2 *470:26 0.000213381
23 *1508:A2 *470:36 5.52238e-05
24 *1601:A2 *470:26 0
25 *1604:B1 *1507:B 7.14196e-06
26 *1607:B1 *1507:B 0
27 *1607:B1 *470:46 6.97972e-05
28 *1609:A3 *470:46 1.58163e-05
29 *1609:B1 *470:36 5.52302e-05
30 *1718:A *470:12 6.97972e-05
31 *1772:D *470:12 3.18676e-05
32 *173:162 *1507:B 0
33 *178:33 *470:36 0.000144851
34 *183:12 *470:26 3.51767e-05
35 *183:12 *470:36 2.59355e-05
36 *185:18 *470:46 0.000121573
37 *186:6 *470:26 1.39726e-05
38 *234:6 *1507:B 5.63217e-05
39 *317:18 *470:36 0.00019384
40 *321:8 *470:12 1.98839e-05
41 *325:14 *470:46 6.05161e-06
42 *339:20 *470:12 0
43 *381:116 *470:12 0.000103993
44 *385:102 *470:26 0
45 *385:108 *470:26 0
46 *388:122 *470:26 0.000369818
47 *388:139 *470:12 0.000312222
48 *388:139 *470:26 0.000336389
49 *388:152 *470:12 0.000131564
50 *469:37 *470:46 0.000238379
*RES
1 *1810:Q *470:12 29.8893 
2 *470:12 *470:26 27.9643 
3 *470:26 *470:36 13.4464 
4 *470:36 *470:46 11.9107 
5 *470:46 *1507:B 18.4071 
6 *470:46 *1504:B1 13.8 
7 *470:36 *1609:A1 9.3 
8 *470:26 *1459:B1 9.3 
9 *470:12 *1828:A 9.3 
*END

*D_NET *471 0.00536799
*CONN
*I *1846:A I *D sky130_fd_sc_hd__dlygate4sd3_1
*I *1604:A1 I *D sky130_fd_sc_hd__o221a_1
*I *1466:A1 I *D sky130_fd_sc_hd__o21ai_2
*I *1509:B I *D sky130_fd_sc_hd__nand2_1
*I *1460:A I *D sky130_fd_sc_hd__inv_2
*I *1811:Q O *D sky130_fd_sc_hd__dfrtp_2
*CAP
1 *1846:A 0
2 *1604:A1 0.000467626
3 *1466:A1 0
4 *1509:B 7.86163e-05
5 *1460:A 9.8968e-05
6 *1811:Q 0.000198843
7 *471:37 0.000154456
8 *471:31 0.000849825
9 *471:18 0.000885129
10 *471:12 0.000678645
11 *471:12 *1683:A0 0.000115295
12 *471:18 *1683:A0 7.62237e-05
13 *1465:A1 *471:31 0
14 *1466:B1 *471:37 1.39726e-05
15 *1509:A *1509:B 0.000201127
16 *1509:A *1604:A1 3.22834e-05
17 *1509:A *471:31 9.25014e-06
18 *1509:A *471:37 5.49489e-05
19 *1601:A2 *1604:A1 0.00018077
20 *1756:A *471:37 0
21 *1811:D *471:18 0
22 *1811:RESET_B *471:12 0
23 *1811:RESET_B *471:18 4.85695e-05
24 *184:8 *471:37 3.99614e-06
25 *187:6 *1460:A 3.08664e-05
26 *193:16 *1604:A1 0.000119097
27 *230:23 *1509:B 5.33005e-05
28 *230:23 *1604:A1 0.000295137
29 *235:8 *1509:B 0.000202835
30 *235:8 *471:31 7.35492e-05
31 *317:18 *471:18 0
32 *317:18 *471:31 0
33 *385:102 *1604:A1 0.000430483
34 *385:108 *1604:A1 1.41706e-05
35 *385:108 *471:18 0
36 *385:108 *471:31 0
37 *388:94 *471:12 0
*RES
1 *1811:Q *471:12 22.1214 
2 *471:12 *471:18 12.9643 
3 *471:18 *1460:A 15.5857 
4 *471:18 *471:31 5.28571 
5 *471:31 *471:37 5.875 
6 *471:37 *1509:B 21.3893 
7 *471:37 *1466:A1 9.3 
8 *471:31 *1604:A1 25.425 
9 *471:12 *1846:A 9.3 
*END

*D_NET *472 0.00687192
*CONN
*I *1829:A I *D sky130_fd_sc_hd__dlygate4sd3_1
*I *1599:B1 I *D sky130_fd_sc_hd__a2bb2o_1
*I *1476:B1 I *D sky130_fd_sc_hd__o21ai_2
*I *1468:B1 I *D sky130_fd_sc_hd__a31o_1
*I *1450:B2 I *D sky130_fd_sc_hd__a32oi_1
*I *1812:Q O *D sky130_fd_sc_hd__dfrtp_2
*CAP
1 *1829:A 0
2 *1599:B1 0.000259964
3 *1476:B1 7.94008e-05
4 *1468:B1 0.00039782
5 *1450:B2 0.000153013
6 *1812:Q 0.000214245
7 *472:54 0.000655234
8 *472:24 0.000858681
9 *472:18 0.000852258
10 *472:12 0.000442785
11 *1450:A3 *1450:B2 0.000100447
12 *1450:B1 *1450:B2 3.27966e-05
13 *1450:B1 *1468:B1 0
14 *1467:A1 *1468:B1 2.75104e-05
15 *1467:A2 *1468:B1 2.06112e-05
16 *1468:A1 *1468:B1 2.07728e-05
17 *1476:A2 *1468:B1 6.12455e-05
18 *1477:B1 *1468:B1 8.5896e-05
19 *1478:A2 *1450:B2 5.66472e-05
20 *1478:B2 *1450:B2 0.000136005
21 *1478:B2 *1468:B1 0.000363945
22 *1479:A1 *472:54 1.31516e-05
23 *1531:A1 *472:12 0.000185408
24 *1531:B1 *472:12 5.49995e-05
25 *1538:B1 *1468:B1 0
26 *1589:A2 *1599:B1 1.3142e-05
27 *1589:A2 *472:54 0.000126446
28 *1589:B1 *1476:B1 4.78308e-05
29 *1592:A2 *472:24 0.000140243
30 *1592:B1 *472:24 8.43535e-06
31 *1592:B2 *472:24 5.50052e-05
32 *1593:A *472:54 6.42022e-05
33 *1593:B *472:24 1.32056e-05
34 *1595:A1 *472:12 3.75868e-05
35 *1598:A1 *1599:B1 8.00842e-05
36 *1598:B1 *1599:B1 9.25014e-06
37 *163:111 *472:18 3.21189e-05
38 *163:124 *472:12 3.79336e-05
39 *193:44 *1599:B1 4.94362e-05
40 *193:71 *1468:B1 0
41 *194:30 *1476:B1 5.33005e-05
42 *195:12 *1468:B1 4.03318e-05
43 *258:16 *472:12 7.88421e-05
44 *258:16 *472:18 7.17649e-05
45 *259:98 *1599:B1 0
46 *259:98 *472:18 5.66161e-05
47 *259:98 *472:54 0.000137511
48 *263:106 *1468:B1 0
49 *278:123 *472:24 0.000358246
50 *308:10 *1599:B1 0.000117421
51 *312:10 *472:24 6.75952e-05
52 *360:74 *472:54 0.000102535
53 *385:102 *1599:B1 0
54 *385:102 *472:54 0
*RES
1 *1812:Q *472:12 23.3536 
2 *472:12 *472:18 8.82143 
3 *472:18 *472:24 11.7321 
4 *472:24 *1450:B2 13.1393 
5 *472:24 *1468:B1 27.0009 
6 *472:18 *472:54 7.10714 
7 *472:54 *1476:B1 15.1571 
8 *472:54 *1599:B1 19.3179 
9 *472:12 *1829:A 9.3 
*END

*D_NET *473 0.0102256
*CONN
*I *1849:A I *D sky130_fd_sc_hd__dlygate4sd3_1
*I *1442:B1 I *D sky130_fd_sc_hd__a21oi_1
*I *1450:A1 I *D sky130_fd_sc_hd__a32oi_1
*I *1594:A1 I *D sky130_fd_sc_hd__o31a_1
*I *1470:C1 I *D sky130_fd_sc_hd__o211ai_4
*I *1474:B1_N I *D sky130_fd_sc_hd__o21bai_2
*I *1813:Q O *D sky130_fd_sc_hd__dfrtp_4
*CAP
1 *1849:A 0.000191888
2 *1442:B1 0
3 *1450:A1 0.000127514
4 *1594:A1 0.000508429
5 *1470:C1 0
6 *1474:B1_N 3.66536e-05
7 *1813:Q 0
8 *473:38 0.000718231
9 *473:32 0.000197724
10 *473:25 0.000470861
11 *473:8 0.00160793
12 *473:4 0.00140774
13 *1594:A1 *479:20 0.000181099
14 *1849:A *1586:A1 3.34295e-05
15 *473:8 *1586:A1 0.000444548
16 *473:8 *491:43 2.16514e-05
17 *473:8 *491:61 0.00059995
18 *473:25 *1473:A1 5.52238e-05
19 *473:25 *482:104 4.08637e-05
20 *473:25 *483:61 0.000170654
21 *1442:A1 *473:32 0.000183477
22 *1450:A3 *1450:A1 0.000179829
23 *1450:A3 *1594:A1 0.000145061
24 *1450:B1 *473:38 5.42961e-05
25 *1474:A2 *1474:B1_N 1.00733e-05
26 *1474:A2 *473:8 2.27416e-05
27 *1474:A2 *473:25 6.09688e-05
28 *1478:A1 *473:38 7.54868e-05
29 *1585:B1 *1849:A 1.92789e-05
30 *1585:B1 *473:8 7.49387e-06
31 *1594:A2 *1594:A1 7.25873e-06
32 *1646:A *473:32 0.00018077
33 *1646:C *1594:A1 0.000125561
34 *1647:A2 *473:8 1.59935e-05
35 *1647:B2 *473:8 1.38323e-05
36 *1797:D *473:8 0.000141554
37 *1797:RESET_B *473:8 5.68722e-05
38 *173:91 *473:25 0.000168939
39 *193:71 *1594:A1 2.71332e-05
40 *197:6 *473:32 0.000266851
41 *201:6 *473:25 0.000309273
42 *254:63 *1849:A 0
43 *254:82 *1849:A 0
44 *263:43 *473:8 3.54589e-05
45 *263:47 *473:8 3.67949e-05
46 *313:12 *1594:A1 5.23822e-05
47 *314:10 *473:8 0.000938201
48 *383:25 *1849:A 0
49 *383:31 *1849:A 0
50 *383:156 *473:8 2.95641e-05
51 *383:177 *473:8 3.18676e-05
52 *385:100 *1594:A1 0.000105648
53 *400:36 *473:25 2.59355e-05
54 *400:36 *473:32 8.25996e-05
*RES
1 *1813:Q *473:4 9.3 
2 *473:4 *473:8 25.6071 
3 *473:8 *1474:B1_N 10.0321 
4 *473:8 *473:25 16.8393 
5 *473:25 *1470:C1 9.3 
6 *473:25 *473:32 4.23214 
7 *473:32 *473:38 10.6429 
8 *473:38 *1594:A1 28.9071 
9 *473:38 *1450:A1 11.0679 
10 *473:32 *1442:B1 9.3 
11 *473:4 *1849:A 21.6929 
*END

*D_NET *474 0.00859564
*CONN
*I *1438:A4 I *D sky130_fd_sc_hd__o41a_1
*I *1577:C_N I *D sky130_fd_sc_hd__or3b_1
*I *1563:A2 I *D sky130_fd_sc_hd__o21a_1
*I *1512:A I *D sky130_fd_sc_hd__xor2_2
*I *1586:A1 I *D sky130_fd_sc_hd__a22oi_2
*I *1583:A1_N I *D sky130_fd_sc_hd__o2bb2ai_1
*I *1814:Q O *D sky130_fd_sc_hd__dfrtp_4
*CAP
1 *1438:A4 0.000114591
2 *1577:C_N 0.000256047
3 *1563:A2 0
4 *1512:A 0
5 *1586:A1 0.000337642
6 *1583:A1_N 0.000316169
7 *1814:Q 0
8 *474:66 0.000702975
9 *474:57 0.00057811
10 *474:25 0.000790875
11 *474:21 0.00082149
12 *474:4 0.000438654
13 *1586:A1 *491:61 0
14 *474:25 *1513:A 3.67246e-05
15 *474:25 *475:18 8.56716e-05
16 *1512:B *1586:A1 4.1331e-06
17 *1512:B *474:25 5.52919e-05
18 *1513:B *474:25 6.10115e-05
19 *1516:B *1577:C_N 0.000309336
20 *1562:A *1438:A4 0.000226233
21 *1562:A *1577:C_N 0.000267807
22 *1577:A *1577:C_N 0.000239506
23 *1578:B *474:25 0.000354152
24 *1581:B2 *474:25 0.000127446
25 *1583:B1 *1583:A1_N 0.000183726
26 *1585:B1 *1586:A1 0.000145789
27 *1586:A2 *1586:A1 0
28 *1586:B1 *1586:A1 5.33005e-05
29 *1586:B2 *1586:A1 0
30 *1679:A0 *1438:A4 7.69435e-05
31 *1679:A0 *1577:C_N 6.53781e-05
32 *1814:D *1583:A1_N 0.000139907
33 *1849:A *1586:A1 3.34295e-05
34 *149:70 *474:57 0.000128146
35 *240:12 *1577:C_N 9.5932e-05
36 *254:82 *474:57 6.97972e-05
37 *263:47 *1586:A1 3.69047e-06
38 *278:61 *474:21 0.000172536
39 *278:61 *474:57 8.40933e-05
40 *279:23 *474:25 9.11417e-05
41 *286:16 *474:66 0.000109588
42 *288:10 *474:66 0.000303362
43 *298:6 *1577:C_N 0.000178425
44 *360:164 *1583:A1_N 7.83366e-05
45 *360:164 *474:25 0
46 *383:25 *474:25 0
47 *385:26 *1583:A1_N 1.3701e-05
48 *473:8 *1586:A1 0.000444548
*RES
1 *1814:Q *474:4 9.3 
2 *474:4 *1583:A1_N 24.9071 
3 *474:4 *474:21 3 
4 *474:21 *474:25 16.4643 
5 *474:25 *1586:A1 21.7464 
6 *474:25 *1512:A 13.8 
7 *474:21 *474:57 14.0714 
8 *474:57 *1563:A2 9.3 
9 *474:57 *474:66 8.73214 
10 *474:66 *1577:C_N 22.4964 
11 *474:66 *1438:A4 16.9607 
*END

*D_NET *475 0.00599302
*CONN
*I *1831:A I *D sky130_fd_sc_hd__dlygate4sd3_1
*I *1438:A3 I *D sky130_fd_sc_hd__o41a_1
*I *1563:A1 I *D sky130_fd_sc_hd__o21a_1
*I *1581:A1 I *D sky130_fd_sc_hd__o22ai_1
*I *1513:A I *D sky130_fd_sc_hd__xor2_2
*I *1815:Q O *D sky130_fd_sc_hd__dfrtp_4
*CAP
1 *1831:A 0.0001601
2 *1438:A3 0.000428408
3 *1563:A1 9.90359e-05
4 *1581:A1 3.39029e-05
5 *1513:A 0.000193203
6 *1815:Q 0
7 *475:18 0.000378396
8 *475:14 0.000607637
9 *475:8 0.000878988
10 *475:6 0.000253368
11 *1513:A *1681:A0 0.000182098
12 *1513:A *491:61 5.19522e-06
13 *1831:A *1681:A0 0
14 *475:8 *1681:A0 0
15 *475:14 *1681:A0 0
16 *475:18 *1681:A0 0.000365682
17 *1513:B *1513:A 9.22545e-05
18 *1515:A *1438:A3 0.000135028
19 *1563:B1 *1563:A1 0.000140933
20 *1576:B2 *1831:A 0
21 *1581:B1 *1581:A1 2.59355e-05
22 *1581:B2 *1513:A 0.000154255
23 *254:82 *1438:A3 0.000303368
24 *254:99 *1438:A3 0.000256563
25 *286:16 *1563:A1 0.00022266
26 *360:164 *1831:A 7.39637e-05
27 *360:164 *475:8 4.98056e-05
28 *360:164 *475:14 8.64788e-05
29 *381:52 *1831:A 0.000142856
30 *385:92 *1513:A 8.14423e-05
31 *462:32 *1438:A3 0.000519067
32 *474:25 *1513:A 3.67246e-05
33 *474:25 *475:18 8.56716e-05
*RES
1 *1815:Q *475:6 13.8 
2 *475:6 *475:8 1.94643 
3 *475:8 *475:14 11.0714 
4 *475:14 *475:18 9.17857 
5 *475:18 *1513:A 19.3536 
6 *475:18 *1581:A1 14.3357 
7 *475:14 *1563:A1 11.8893 
8 *475:8 *1438:A3 23.7821 
9 *475:6 *1831:A 17.7107 
*END

*D_NET *476 0.00762403
*CONN
*I *1642:A1 I *D sky130_fd_sc_hd__mux2_1
*I *1497:A3 I *D sky130_fd_sc_hd__o31ai_1
*I *1427:B I *D sky130_fd_sc_hd__nor2_2
*I *1489:B1 I *D sky130_fd_sc_hd__o211ai_1
*I *1490:A I *D sky130_fd_sc_hd__inv_2
*I *1644:B1 I *D sky130_fd_sc_hd__o21ai_1
*I *1798:Q O *D sky130_fd_sc_hd__dfrtp_4
*CAP
1 *1642:A1 0.000361535
2 *1497:A3 0
3 *1427:B 0.000258435
4 *1489:B1 7.80261e-05
5 *1490:A 0.000159237
6 *1644:B1 0
7 *1798:Q 0
8 *476:45 0.000303385
9 *476:32 0.000202949
10 *476:15 0.00047464
11 *476:8 0.000671293
12 *476:4 0.000797398
13 *1427:B *1420:B 0
14 *1427:B *1427:A 0.000270637
15 *1489:B1 *1427:A 4.56437e-05
16 *1489:B1 *477:23 1.02504e-05
17 *1489:B1 *477:32 0.000137224
18 *1489:B1 *478:23 0.000173779
19 *1490:A *480:33 1.83053e-05
20 *1490:A *486:70 0.000143373
21 *476:32 *1497:A1 5.52302e-05
22 *1497:B1 *1427:B 6.97972e-05
23 *1644:A1 *476:8 0.000137983
24 *1644:A1 *476:15 0.000268396
25 *1644:A2 *476:8 9.60875e-05
26 *1644:A2 *476:15 0.000505123
27 *149:20 *476:15 0.000970436
28 *149:20 *476:32 0.000130001
29 *149:20 *476:45 6.05161e-06
30 *152:12 *1427:B 1.33343e-05
31 *153:12 *476:15 0.000744199
32 *153:12 *476:32 0.000125547
33 *216:6 *1490:A 5.49489e-05
34 *254:33 *476:32 0.000119502
35 *254:33 *476:45 8.36572e-05
36 *263:92 *1427:B 3.18747e-05
37 *360:113 *1642:A1 8.00806e-05
38 *409:14 *1642:A1 2.56694e-05
*RES
1 *1798:Q *476:4 9.3 
2 *476:4 *476:8 7.83929 
3 *476:8 *1644:B1 9.3 
4 *476:8 *476:15 12.0357 
5 *476:15 *1490:A 21.5143 
6 *476:15 *476:32 3 
7 *476:32 *1489:B1 20.8536 
8 *476:32 *476:45 0.946429 
9 *476:45 *1427:B 24.1036 
10 *476:45 *1497:A3 9.3 
11 *476:4 *1642:A1 23.175 
*END

*D_NET *477 0.00555066
*CONN
*I *1640:A1 I *D sky130_fd_sc_hd__mux2_1
*I *1427:A I *D sky130_fd_sc_hd__nor2_2
*I *1497:A2 I *D sky130_fd_sc_hd__o31ai_1
*I *1489:C1 I *D sky130_fd_sc_hd__o211ai_1
*I *1491:B1_N I *D sky130_fd_sc_hd__o21bai_1
*I *1799:Q O *D sky130_fd_sc_hd__dfrtp_2
*CAP
1 *1640:A1 0.000120654
2 *1427:A 0.00021593
3 *1497:A2 2.68887e-05
4 *1489:C1 0
5 *1491:B1_N 0
6 *1799:Q 0
7 *477:32 0.000338928
8 *477:23 0.000438219
9 *477:12 0.000936648
10 *477:4 0.000715194
11 *1427:A *478:23 6.8646e-06
12 *1427:A *478:36 1.46717e-05
13 *477:12 *1691:A0 0.000101207
14 *477:12 *478:23 0
15 *477:12 *486:70 0.000272665
16 *477:23 *478:23 5.81926e-05
17 *1427:B *1427:A 0.000270637
18 *1489:B1 *1427:A 4.56437e-05
19 *1489:B1 *477:23 1.02504e-05
20 *1489:B1 *477:32 0.000137224
21 *1491:A1 *477:23 0.000125724
22 *1491:A2 *477:23 3.55552e-05
23 *1497:B1 *1427:A 1.50087e-05
24 *1640:A0 *1640:A1 5.66971e-05
25 *1799:D *477:12 0.000201854
26 *1800:RESET_B *477:12 0.000176941
27 *147:14 *477:23 0
28 *149:20 *1427:A 0.00015234
29 *152:12 *1427:A 8.50152e-05
30 *218:8 *477:23 3.67257e-05
31 *254:33 *1497:A2 3.28686e-05
32 *259:135 *1640:A1 0.000186846
33 *259:135 *477:12 0.000360687
34 *263:92 *1427:A 0.000264762
35 *359:32 *477:12 0.000109812
*RES
1 *1799:Q *477:4 9.3 
2 *477:4 *477:12 24.5179 
3 *477:12 *1491:B1_N 9.3 
4 *477:12 *477:23 10.25 
5 *477:23 *1489:C1 13.8 
6 *477:23 *477:32 1.94643 
7 *477:32 *1497:A2 14.1304 
8 *477:32 *1427:A 20.2821 
9 *477:4 *1640:A1 12.7107 
*END

*D_NET *478 0.0089638
*CONN
*I *1481:B1 I *D sky130_fd_sc_hd__a211o_1
*I *1428:B I *D sky130_fd_sc_hd__nor2_4
*I *1483:A I *D sky130_fd_sc_hd__inv_2
*I *1480:B1 I *D sky130_fd_sc_hd__o21ai_1
*I *1497:A1 I *D sky130_fd_sc_hd__o31ai_1
*I *1638:A1 I *D sky130_fd_sc_hd__mux2_1
*I *1800:Q O *D sky130_fd_sc_hd__dfrtp_4
*CAP
1 *1481:B1 0.000239665
2 *1428:B 0.000258027
3 *1483:A 0
4 *1480:B1 4.48058e-05
5 *1497:A1 1.16062e-05
6 *1638:A1 0.000655795
7 *1800:Q 0.000315123
8 *478:57 0.00027498
9 *478:53 0.00043029
10 *478:36 0.000391154
11 *478:23 0.000926634
12 *478:8 0.00171327
13 *1481:B1 *1496:B1 4.86299e-05
14 *1638:A1 *1691:A0 1.95678e-05
15 *478:23 *486:70 0
16 *478:36 *486:70 0
17 *1427:A *478:23 6.8646e-06
18 *1427:A *478:36 1.46717e-05
19 *1480:A2 *1480:B1 1.24368e-05
20 *1481:A1 *1481:B1 2.92346e-05
21 *1481:C1 *1481:B1 0.000179883
22 *1484:A2 *1480:B1 5.33005e-05
23 *1484:A2 *478:53 4.27935e-05
24 *1489:B1 *478:23 0.000173779
25 *1491:A1 *478:23 0.000125724
26 *1496:C1 *1481:B1 0.00012952
27 *1497:B1 *1481:B1 0.00013478
28 *1497:B1 *478:53 0.000194847
29 *1498:A *1481:B1 0.00014281
30 *1498:A *478:53 0.000193323
31 *1638:A0 *1638:A1 5.49489e-05
32 *1799:D *478:23 0.000104896
33 *1799:RESET_B *478:23 6.74651e-05
34 *1800:D *1638:A1 0.000226069
35 *1823:A *478:23 0
36 *148:41 *478:53 0.000159874
37 *148:43 *1480:B1 2.59355e-05
38 *148:43 *478:53 6.05161e-06
39 *149:20 *1497:A1 5.52302e-05
40 *149:20 *478:36 0.000135783
41 *149:20 *478:53 0.00022432
42 *151:6 *1428:B 4.86074e-05
43 *151:10 *1428:B 0.000207905
44 *151:10 *478:57 5.33005e-05
45 *151:26 *1481:B1 0.000106295
46 *153:12 *478:23 2.84494e-05
47 *153:12 *478:36 6.07328e-05
48 *166:10 *478:36 7.6644e-05
49 *166:36 *478:36 3.17148e-05
50 *210:8 *1428:B 4.08637e-05
51 *210:8 *478:57 5.33005e-05
52 *228:39 *1481:B1 0.000280965
53 *387:29 *1638:A1 3.75081e-05
54 *476:32 *1497:A1 5.52302e-05
55 *477:12 *478:23 0
56 *477:23 *478:23 5.81926e-05
*RES
1 *1800:Q *478:8 13.1393 
2 *478:8 *1638:A1 17.2286 
3 *478:8 *478:23 18.3393 
4 *478:23 *1497:A1 14.3357 
5 *478:23 *478:36 8.875 
6 *478:36 *1480:B1 10.2643 
7 *478:36 *478:53 10.4821 
8 *478:53 *478:57 5.03571 
9 *478:57 *1483:A 9.3 
10 *478:57 *1428:B 14.5143 
11 *478:53 *1481:B1 21.9964 
*END

*D_NET *479 0.0134899
*CONN
*I *1636:A1 I *D sky130_fd_sc_hd__mux2_1
*I *1498:B I *D sky130_fd_sc_hd__nand2_1
*I *1496:B1 I *D sky130_fd_sc_hd__a211o_1
*I *1428:A I *D sky130_fd_sc_hd__nor2_4
*I *1801:Q O *D sky130_fd_sc_hd__dfrtp_4
*CAP
1 *1636:A1 2.03441e-05
2 *1498:B 2.30576e-05
3 *1496:B1 7.68438e-05
4 *1428:A 0.000100563
5 *1801:Q 0.00049006
6 *479:41 0.000381724
7 *479:26 0.00134976
8 *479:20 0.00259908
9 *479:12 0.00214211
10 *479:20 *483:32 0.000295137
11 *479:41 *1430:A_N 1.87331e-05
12 *1481:B1 *1496:B1 4.86299e-05
13 *1496:C1 *1496:B1 3.27019e-05
14 *1496:C1 *1498:B 6.04182e-05
15 *1496:C1 *479:41 4.35597e-05
16 *1553:B *479:26 0.000224513
17 *1594:A1 *479:20 0.000181099
18 *1636:A0 *479:12 4.0342e-06
19 *1636:A0 *479:20 1.72894e-05
20 *1636:S *1636:A1 5.7661e-06
21 *1636:S *479:12 3.98401e-05
22 *1637:A *479:20 3.05446e-05
23 *1646:C *479:20 0
24 *1769:CLK *479:12 1.41642e-05
25 *1773:CLK *479:12 8.13491e-05
26 *1801:RESET_B *479:12 0
27 *150:40 *1428:A 0.000217899
28 *150:40 *479:26 0.000363636
29 *150:102 *479:26 0.000706163
30 *151:59 *1428:A 0.000172252
31 *151:59 *479:26 0.000422663
32 *151:74 *479:26 0.000644161
33 *161:66 *479:20 0.00069799
34 *193:71 *479:20 0.000242243
35 *228:39 *1496:B1 1.24368e-05
36 *266:119 *479:20 0.000141481
37 *266:155 *479:20 0.000101431
38 *383:177 *479:20 0.000414638
39 *384:143 *479:12 0
40 *390:70 *479:12 0.000487641
41 *400:36 *479:26 0.000583908
*RES
1 *1801:Q *479:12 27.55 
2 *479:12 *479:20 42.1964 
3 *479:20 *479:26 26.625 
4 *479:26 *1428:A 16.6571 
5 *479:26 *479:41 8.75 
6 *479:41 *1496:B1 11.0857 
7 *479:41 *1498:B 10.2643 
8 *479:12 *1636:A1 9.72857 
*END

*D_NET *480 0.0159537
*CONN
*I *1462:A2 I *D sky130_fd_sc_hd__a21oi_1
*I *1504:A2 I *D sky130_fd_sc_hd__a31o_1
*I *1429:B I *D sky130_fd_sc_hd__nor2_2
*I *1506:B1 I *D sky130_fd_sc_hd__a211o_1
*I *1503:B1 I *D sky130_fd_sc_hd__a21oi_2
*I *1456:A1 I *D sky130_fd_sc_hd__o21ai_1
*I *1452:A I *D sky130_fd_sc_hd__inv_2
*I *1634:A1 I *D sky130_fd_sc_hd__mux2_1
*I *1802:Q O *D sky130_fd_sc_hd__dfrtp_4
*CAP
1 *1462:A2 0
2 *1504:A2 4.37554e-05
3 *1429:B 0.000224662
4 *1506:B1 0
5 *1503:B1 4.39451e-05
6 *1456:A1 0.000210076
7 *1452:A 1.97758e-05
8 *1634:A1 0.000455541
9 *1802:Q 2.22847e-05
10 *480:94 0.000546816
11 *480:88 0.000451171
12 *480:75 0.000289341
13 *480:56 0.00063264
14 *480:41 0.000633658
15 *480:33 0.00310731
16 *480:6 0.00323368
17 *1429:B *1424:A 4.58402e-06
18 *1429:B *1429:A 0.000131312
19 *1429:B *1444:A1 5.50052e-05
20 *1429:B *492:42 2.03801e-05
21 *1429:B *492:44 1.44644e-05
22 *1456:A1 *1458:A1 4.15183e-05
23 *1634:A1 *489:18 0.000200413
24 *480:33 *1420:B 0.000141729
25 *480:33 *1462:B1 8.07313e-05
26 *480:33 *1489:A1 2.44318e-05
27 *480:33 *492:68 4.24946e-05
28 *480:41 *481:47 2.06178e-05
29 *480:41 *481:59 0.000426752
30 *480:75 *1458:A1 2.06178e-05
31 *1440:A *1429:B 0.000111067
32 *1440:A *480:94 8.6229e-06
33 *1444:A2 *1429:B 0.000107374
34 *1453:A1 *1456:A1 5.45307e-05
35 *1453:A2 *1456:A1 0.000155019
36 *1453:A2 *480:75 0.000169064
37 *1456:B1 *1456:A1 9.99853e-05
38 *1458:A2 *1452:A 5.7903e-06
39 *1458:C1 *1456:A1 0
40 *1461:B *480:33 0
41 *1462:A1 *480:41 1.02504e-05
42 *1462:A1 *480:94 0.000178847
43 *1489:A2 *480:33 0.000352228
44 *1490:A *480:33 1.83053e-05
45 *1504:A1 *1504:A2 0.000161701
46 *1504:A1 *480:94 0.000135028
47 *1504:A3 *1504:A2 9.83442e-05
48 *1504:A3 *480:94 0.000339548
49 *1609:A2 *1503:B1 0.000141734
50 *1609:A3 *480:33 0.000198758
51 *1624:A2 *480:33 8.25843e-06
52 *1624:B1 *480:33 0.000233717
53 *1634:S *1634:A1 9.90367e-05
54 *1747:A *1634:A1 5.52302e-05
55 *148:26 *1429:B 9.54798e-06
56 *148:26 *480:94 0.000241723
57 *155:26 *480:33 1.33343e-05
58 *166:71 *480:94 0.00010326
59 *166:104 *480:94 0.000145406
60 *170:50 *480:41 3.91193e-05
61 *170:50 *480:56 3.57043e-05
62 *173:162 *480:75 1.02504e-05
63 *173:162 *480:88 0.000140361
64 *179:57 *1456:A1 0
65 *181:10 *1452:A 2.06178e-05
66 *181:53 *1452:A 9.54798e-06
67 *181:53 *480:75 1.183e-05
68 *185:18 *480:75 0
69 *216:6 *480:33 0.000157853
70 *217:10 *480:33 2.54304e-06
71 *219:6 *480:33 0.000136682
72 *219:16 *480:33 0.000181796
73 *230:6 *1503:B1 5.65955e-05
74 *254:10 *480:33 9.00943e-05
75 *263:92 *1504:A2 2.36643e-05
76 *266:28 *480:41 1.48677e-06
77 *335:6 *480:33 8.86413e-05
78 *382:72 *1634:A1 0
79 *384:43 *480:33 5.49544e-05
80 *384:54 *480:33 0.000299223
81 *387:115 *1634:A1 6.05161e-06
82 *387:125 *1634:A1 0.000151525
83 *461:33 *480:33 3.97677e-05
84 *470:46 *480:75 0
85 *470:46 *480:88 0
*RES
1 *1802:Q *480:6 9.72857 
2 *480:6 *1634:A1 26.4429 
3 *480:6 *480:33 42.2143 
4 *480:33 *480:41 9.09859 
5 *480:41 *1452:A 17.4868 
6 *480:41 *480:56 3.8894 
7 *480:56 *1456:A1 18.0411 
8 *480:56 *480:75 3.00893 
9 *480:75 *1503:B1 15.1571 
10 *480:75 *480:88 6.44643 
11 *480:88 *480:94 12.7143 
12 *480:94 *1506:B1 13.8 
13 *480:94 *1429:B 18.8893 
14 *480:88 *1504:A2 11.0857 
15 *480:33 *1462:A2 9.3 
*END

*D_NET *481 0.015574
*CONN
*I *1429:A I *D sky130_fd_sc_hd__nor2_2
*I *1462:B1 I *D sky130_fd_sc_hd__a21oi_1
*I *1453:B1_N I *D sky130_fd_sc_hd__o21bai_1
*I *1455:B1 I *D sky130_fd_sc_hd__o21a_1
*I *1632:A1 I *D sky130_fd_sc_hd__mux2_1
*I *1803:Q O *D sky130_fd_sc_hd__dfrtp_4
*CAP
1 *1429:A 0.000129661
2 *1462:B1 8.62156e-05
3 *1453:B1_N 3.50999e-05
4 *1455:B1 0
5 *1632:A1 0.000653727
6 *1803:Q 0
7 *481:59 0.000242399
8 *481:47 0.000633742
9 *481:41 0.000536705
10 *481:37 0.00335158
11 *481:4 0.00393849
12 *1429:A *1424:A 1.05731e-05
13 *1453:B1_N *1455:A1 0.000141131
14 *481:37 *486:70 7.97786e-05
15 *481:59 *492:48 5.14458e-05
16 *1429:B *1429:A 0.000131312
17 *1444:A2 *1429:A 1.46148e-05
18 *1444:A2 *481:37 9.13301e-05
19 *1455:A2 *1453:B1_N 2.36643e-05
20 *1456:B1 *1453:B1_N 0.000182598
21 *1461:C *481:47 0.000270752
22 *1462:A1 *481:47 1.91414e-05
23 *1464:B1 *1462:B1 1.51018e-05
24 *1464:B1 *481:59 6.2589e-06
25 *1482:B *481:37 0.000650819
26 *1485:A2 *481:37 9.26954e-07
27 *1486:B *481:37 4.63685e-05
28 *1499:C *481:37 0.000206852
29 *1617:A2 *481:37 0.00012546
30 *1632:S *1632:A1 1.41706e-05
31 *1633:A *1632:A1 0
32 *1789:CLK *1632:A1 3.36298e-05
33 *1789:CLK *481:37 5.65955e-05
34 *1789:D *481:37 3.1367e-05
35 *1789:RESET_B *481:37 3.02581e-06
36 *1803:CLK *1632:A1 0
37 *150:56 *481:37 0.000234618
38 *151:6 *481:37 0.000351474
39 *151:10 *481:37 0.000192069
40 *151:26 *481:37 2.59355e-05
41 *155:16 *481:41 4.95678e-05
42 *155:16 *481:47 7.9585e-05
43 *155:18 *481:47 0.000387267
44 *155:26 *1462:B1 1.39726e-05
45 *155:26 *481:47 0.000169797
46 *156:12 *481:37 5.49995e-05
47 *170:50 *481:59 0.000241169
48 *181:10 *481:59 0.000108353
49 *208:14 *481:37 0.000311103
50 *210:8 *481:37 8.10737e-06
51 *225:26 *481:37 0.000102387
52 *266:28 *481:47 0
53 *266:28 *481:59 0
54 *303:20 *481:41 0.000117302
55 *303:20 *481:47 0.000272293
56 *303:20 *481:59 1.88175e-05
57 *331:8 *481:37 9.05515e-05
58 *384:12 *1632:A1 0
59 *385:51 *481:37 0.000356211
60 *409:14 *481:37 4.58194e-05
61 *480:33 *1462:B1 8.07313e-05
62 *480:41 *481:47 2.06178e-05
63 *480:41 *481:59 0.000426752
*RES
1 *1803:Q *481:4 9.3 
2 *481:4 *1632:A1 26.4429 
3 *481:4 *481:37 47.897 
4 *481:37 *481:41 6.14286 
5 *481:41 *481:47 10.1964 
6 *481:47 *481:59 14.087 
7 *481:59 *1455:B1 9.3 
8 *481:59 *1453:B1_N 11.0679 
9 *481:47 *1462:B1 15.5679 
10 *481:41 *1429:A 15.8893 
*END

*D_NET *482 0.0157664
*CONN
*I *1630:A1 I *D sky130_fd_sc_hd__mux2_1
*I *1467:B1 I *D sky130_fd_sc_hd__a21oi_2
*I *1468:A2 I *D sky130_fd_sc_hd__a31o_1
*I *1475:B I *D sky130_fd_sc_hd__and3_1
*I *1471:A I *D sky130_fd_sc_hd__or2b_1
*I *1473:A1 I *D sky130_fd_sc_hd__o21a_2
*I *1441:A_N I *D sky130_fd_sc_hd__nand3b_1
*I *1448:B1 I *D sky130_fd_sc_hd__a21o_1
*I *1430:A_N I *D sky130_fd_sc_hd__nand4b_4
*I *1444:B1 I *D sky130_fd_sc_hd__o21ai_1
*I *1804:Q O *D sky130_fd_sc_hd__dfrtp_4
*CAP
1 *1630:A1 0
2 *1467:B1 1.70187e-05
3 *1468:A2 3.89115e-05
4 *1475:B 0
5 *1471:A 0
6 *1473:A1 0.000207139
7 *1441:A_N 0
8 *1448:B1 5.77349e-05
9 *1430:A_N 0.000628105
10 *1444:B1 0.000115739
11 *1804:Q 0.000316923
12 *482:104 0.000412605
13 *482:91 0.000294
14 *482:52 0.000800248
15 *482:50 0.000314454
16 *482:48 0.000521639
17 *482:44 0.000423753
18 *482:42 0.000545214
19 *482:38 0.00220091
20 *482:14 0.00218548
21 *1473:A1 *483:61 0.000313071
22 *482:38 *1858:A 1.80637e-05
23 *482:38 *494:23 0.000117481
24 *482:38 *494:32 7.83587e-05
25 *1440:A *1430:A_N 0.000135028
26 *1440:B *1430:A_N 1.12992e-05
27 *1441:B *482:91 8.06687e-05
28 *1441:B *482:104 4.6025e-06
29 *1447:A *1430:A_N 4.96113e-05
30 *1448:A1 *1448:B1 3.99614e-06
31 *1448:A2 *1448:B1 7.50256e-05
32 *1449:A2 *1444:B1 0.000192997
33 *1449:A2 *482:50 0.000139653
34 *1449:A2 *482:52 0.000116194
35 *1449:B1 *482:50 0.000127446
36 *1467:A1 *482:44 6.04271e-06
37 *1468:A1 *1468:A2 9.54798e-06
38 *1468:A3 *1468:A2 5.28738e-05
39 *1476:A2 *1467:B1 7.48927e-06
40 *1476:A2 *482:38 4.43256e-05
41 *1476:A2 *482:42 0.00035829
42 *1476:A2 *482:44 0.000181374
43 *1589:B1 *482:38 0.000213353
44 *1630:A0 *482:14 7.3237e-05
45 *1630:A0 *482:38 1.55885e-05
46 *1630:S *482:14 3.3283e-05
47 *1630:S *482:38 0.000462675
48 *1703:B1 *482:38 0.000395625
49 *155:12 *1430:A_N 1.60665e-05
50 *155:64 *1430:A_N 8.22661e-06
51 *156:12 *1444:B1 1.80261e-05
52 *172:48 *482:44 7.36773e-07
53 *172:48 *482:50 0.000196269
54 *172:48 *482:91 7.95909e-05
55 *172:68 *1444:B1 9.56362e-05
56 *172:68 *482:50 0.000104813
57 *172:68 *482:52 6.1169e-05
58 *193:71 *1468:A2 0
59 *193:71 *482:104 3.14763e-05
60 *201:6 *482:104 8.56752e-05
61 *203:10 *482:38 0.000185643
62 *205:18 *1473:A1 0.000178503
63 *229:16 *1448:B1 6.68839e-05
64 *266:119 *482:50 0.000265385
65 *266:119 *482:91 0.00023304
66 *266:119 *482:104 7.0048e-05
67 *303:20 *1473:A1 0.000312363
68 *303:20 *482:50 0
69 *303:115 *1473:A1 6.96806e-05
70 *361:28 *482:38 0.00012401
71 *361:42 *482:44 6.98439e-06
72 *361:42 *482:48 0.000227381
73 *381:110 *482:38 0.00030398
74 *381:116 *482:38 6.79023e-05
75 *388:163 *482:38 7.70208e-05
76 *395:14 *482:14 0.000367991
77 *473:25 *1473:A1 5.52238e-05
78 *473:25 *482:104 4.08637e-05
79 *479:41 *1430:A_N 1.87331e-05
*RES
1 *1804:Q *482:14 25.5857 
2 *482:14 *482:38 41.25 
3 *482:38 *482:42 4.66071 
4 *482:42 *482:44 2.58929 
5 *482:44 *482:48 7.5 
6 *482:48 *482:50 6.80357 
7 *482:50 *482:52 1.64286 
8 *482:52 *1444:B1 17.0857 
9 *482:52 *1430:A_N 21.6393 
10 *482:50 *1448:B1 15.6214 
11 *482:48 *482:91 3.16071 
12 *482:91 *1441:A_N 13.8 
13 *482:91 *482:104 7.71429 
14 *482:104 *1473:A1 24.675 
15 *482:104 *1471:A 9.3 
16 *482:44 *1475:B 9.3 
17 *482:42 *1468:A2 19.0321 
18 *482:38 *1467:B1 9.72857 
19 *482:14 *1630:A1 9.3 
*END

*D_NET *483 0.0149847
*CONN
*I *1628:A1 I *D sky130_fd_sc_hd__mux2_1
*I *1432:C I *D sky130_fd_sc_hd__and3_2
*I *1521:A1 I *D sky130_fd_sc_hd__a311o_1
*I *1431:B1 I *D sky130_fd_sc_hd__a21oi_2
*I *1441:C I *D sky130_fd_sc_hd__nand3b_1
*I *1471:B_N I *D sky130_fd_sc_hd__or2b_1
*I *1469:A I *D sky130_fd_sc_hd__inv_2
*I *1546:A1 I *D sky130_fd_sc_hd__a31o_1
*I *1805:Q O *D sky130_fd_sc_hd__dfrtp_4
*CAP
1 *1628:A1 0
2 *1432:C 0
3 *1521:A1 0.000350698
4 *1431:B1 0
5 *1441:C 0.000191381
6 *1471:B_N 4.16245e-05
7 *1469:A 0.000146633
8 *1546:A1 3.37216e-05
9 *1805:Q 0.000538866
10 *483:76 0.000233006
11 *483:61 0.000468871
12 *483:53 0.000524021
13 *483:49 0.000552481
14 *483:40 9.56711e-05
15 *483:36 0.000374338
16 *483:32 0.00291629
17 *483:12 0.00314276
18 *1432:A *1546:A1 9.71197e-05
19 *1432:A *483:40 5.52302e-05
20 *1432:B *1546:A1 2.24064e-05
21 *1432:B *483:40 4.51726e-05
22 *1472:B2 *1469:A 0.000161285
23 *1473:A1 *483:61 0.000313071
24 *1473:B1 *483:53 2.71964e-05
25 *1474:A1 *1469:A 0
26 *1521:A2 *1521:A1 1.33343e-05
27 *1521:C1 *1521:A1 7.68852e-05
28 *1525:A2 *1521:A1 8.43535e-06
29 *1525:B1 *1521:A1 5.86416e-05
30 *1525:B1 *483:53 8.22749e-05
31 *1525:B2 *1521:A1 0.000151299
32 *1525:B2 *483:53 5.01946e-05
33 *1525:C1 *1521:A1 1.98839e-05
34 *1526:B1 *483:32 0.000271339
35 *1536:A1 *483:32 3.10885e-05
36 *1538:A3 *483:32 1.01417e-05
37 *1538:B1 *483:32 8.86353e-05
38 *1539:B *483:32 5.33005e-05
39 *1546:A3 *483:40 0
40 *1546:B1 *1546:A1 1.86552e-05
41 *1546:B1 *483:53 0.00012401
42 *1547:A2 *1521:A1 1.23973e-05
43 *1582:A *483:61 9.84729e-05
44 *1628:S *483:12 2.36784e-05
45 *1628:S *483:32 0.000315165
46 *1629:A *483:12 0
47 *1629:A *483:32 5.71472e-05
48 *1646:A *483:61 8.52379e-05
49 *1646:C *483:32 0
50 *1895:A *483:32 2.45318e-05
51 *158:19 *483:53 4.75203e-05
52 *159:8 *483:36 9.80173e-05
53 *159:8 *483:40 3.68898e-05
54 *160:8 *483:53 0.000214764
55 *161:52 *483:61 4.23557e-05
56 *161:66 *483:32 3.2653e-05
57 *163:111 *483:61 0.000267137
58 *173:91 *1469:A 0.000123126
59 *173:91 *483:61 0.000204827
60 *196:8 *1469:A 3.18676e-05
61 *201:6 *1441:C 0.000131385
62 *201:6 *1471:B_N 9.71197e-05
63 *246:33 *1521:A1 5.71472e-05
64 *252:25 *483:32 9.89464e-05
65 *266:155 *483:32 4.15477e-05
66 *303:10 *483:61 5.78663e-05
67 *303:20 *1469:A 6.05374e-05
68 *303:20 *483:61 3.92861e-05
69 *390:42 *483:32 0.00049031
70 *390:53 *483:32 0.000255048
71 *420:10 *483:32 3.08664e-05
72 *460:10 *1521:A1 5.31122e-05
73 *473:25 *483:61 0.000170654
74 *479:20 *483:32 0.000295137
*RES
1 *1805:Q *483:12 17.2643 
2 *483:12 *483:32 49.9286 
3 *483:32 *483:36 4.66071 
4 *483:36 *483:40 1.78571 
5 *483:40 *1546:A1 10.2464 
6 *483:40 *483:49 4.5 
7 *483:49 *483:53 9.48214 
8 *483:53 *483:61 14.9286 
9 *483:61 *1469:A 17.5321 
10 *483:61 *483:76 4.5 
11 *483:76 *1471:B_N 10.2464 
12 *483:76 *1441:C 12.7464 
13 *483:53 *1431:B1 9.3 
14 *483:49 *1521:A1 28.425 
15 *483:36 *1432:C 9.3 
16 *483:12 *1628:A1 9.3 
*END

*D_NET *484 0.00395573
*CONN
*I *1423:A I *D sky130_fd_sc_hd__buf_4
*I *1443:A I *D sky130_fd_sc_hd__inv_2
*I *1420:B I *D sky130_fd_sc_hd__and2b_1
*I *1790:Q O *D sky130_fd_sc_hd__dfrtp_1
*CAP
1 *1423:A 2.65875e-05
2 *1443:A 6.63272e-05
3 *1420:B 0.000241902
4 *1790:Q 0.000192159
5 *484:10 0.00100936
6 *484:8 0.000919873
7 *1420:B *492:68 7.86973e-05
8 *1427:B *1420:B 0
9 *1445:A *1423:A 0.000140933
10 *1497:B1 *1420:B 0
11 *1497:B1 *484:10 0
12 *1498:A *484:10 0
13 *148:16 *1420:B 0
14 *150:8 *1423:A 0.000140933
15 *151:59 *484:8 1.88048e-05
16 *151:59 *484:10 0.000186399
17 *151:74 *484:8 8.2806e-05
18 *172:21 *484:8 0
19 *172:21 *484:10 0
20 *173:20 *484:8 0.00012401
21 *254:33 *1443:A 2.84026e-05
22 *386:20 *484:10 0.000262136
23 *469:47 *484:10 0.000294678
24 *480:33 *1420:B 0.000141729
*RES
1 *1790:Q *484:8 17.8714 
2 *484:8 *484:10 14.0893 
3 *484:10 *1420:B 18.0143 
4 *484:10 *1443:A 15.0679 
5 *484:8 *1423:A 15.1571 
*END

*D_NET *485 0.00803686
*CONN
*I *1693:A0 I *D sky130_fd_sc_hd__mux2_1
*I *1658:B2 I *D sky130_fd_sc_hd__a22o_1
*I *1660:A1 I *D sky130_fd_sc_hd__a22o_1
*I *1791:Q O *D sky130_fd_sc_hd__dfrtp_1
*CAP
1 *1693:A0 0.00042243
2 *1658:B2 1.58688e-05
3 *1660:A1 0.000258701
4 *1791:Q 8.68415e-05
5 *485:22 0.0016819
6 *485:8 0.0019166
7 *1436:A *1658:B2 9.83442e-05
8 *1436:A *485:22 0.000609056
9 *1581:A2 *485:22 0.000146261
10 *1585:A1 *485:22 8.87037e-05
11 *1660:B1 *1660:A1 3.70808e-05
12 *1660:B2 *1660:A1 5.65955e-05
13 *1661:B1 *1660:A1 1.18547e-05
14 *1693:A1 *1693:A0 3.08664e-05
15 *1791:D *485:8 2.79421e-05
16 *1814:D *1693:A0 3.69047e-06
17 *153:41 *485:22 0.000144732
18 *160:35 *1660:A1 1.8226e-05
19 *160:39 *485:22 0.000171594
20 *161:20 *485:22 6.50073e-05
21 *163:22 *1660:A1 0
22 *279:6 *1658:B2 8.59075e-05
23 *279:6 *485:22 0.000183556
24 *279:8 *485:22 0.000564044
25 *303:133 *1660:A1 0.000181828
26 *383:12 *1693:A0 2.86367e-05
27 *383:12 *485:22 0.00010395
28 *383:25 *485:22 0.000143959
29 *385:26 *1693:A0 3.85676e-05
30 *385:41 *1693:A0 0.000302416
31 *391:18 *1693:A0 0.000315841
32 *391:18 *485:22 0.000195856
*RES
1 *1791:Q *485:8 14.7464 
2 *485:8 *485:22 38.7857 
3 *485:22 *1660:A1 23.3536 
4 *485:22 *1658:B2 10.2464 
5 *485:8 *1693:A0 23.4786 
*END

*D_NET *486 0.0175542
*CONN
*I *1658:A1 I *D sky130_fd_sc_hd__a22o_1
*I *1691:A0 I *D sky130_fd_sc_hd__mux2_1
*I *1656:B2 I *D sky130_fd_sc_hd__a22o_1
*I *1792:Q O *D sky130_fd_sc_hd__dfrtp_1
*CAP
1 *1658:A1 0
2 *1691:A0 0.00218358
3 *1656:B2 5.56178e-05
4 *1792:Q 0.000411565
5 *486:70 0.00180231
6 *486:35 0.0053877
7 *486:18 0.00186899
8 *1656:B2 *487:43 0
9 *486:18 *487:43 0.000152929
10 *486:18 *487:53 0.000138813
11 *486:35 *487:43 0
12 *1481:A2 *486:70 2.23235e-05
13 *1485:A2 *486:70 8.46259e-06
14 *1486:B *486:70 0.000146994
15 *1490:A *486:70 0.000143373
16 *1499:A *486:70 0
17 *1638:A1 *1691:A0 1.95678e-05
18 *1638:S *1691:A0 2.84109e-05
19 *1639:A *1691:A0 0.000185403
20 *1640:S *486:35 0
21 *1641:A *486:35 0.000488766
22 *1649:A1 *486:35 0
23 *1656:A2 *1656:B2 0
24 *1656:A2 *486:18 5.52238e-05
25 *1656:A2 *486:35 0
26 *1657:A1 *486:18 9.16325e-06
27 *1657:B1 *486:18 0.000436694
28 *1658:B1 *486:70 0.000183815
29 *1660:B2 *486:70 0.000755592
30 *1678:A *486:18 0
31 *1691:A1 *1691:A0 4.62544e-05
32 *1691:S *1691:A0 1.76666e-05
33 *1740:A *486:18 1.578e-05
34 *1742:A *486:70 0.000564681
35 *1744:A *486:35 0.000356028
36 *1782:CLK *486:18 0
37 *1782:D *486:18 7.43578e-06
38 *1790:D *486:70 3.35685e-06
39 *1792:CLK *486:35 0
40 *1792:D *486:35 5.95932e-05
41 *1796:D *486:35 9.96553e-05
42 *1800:D *1691:A0 3.36227e-05
43 *1800:RESET_B *1691:A0 7.70035e-05
44 *1806:CLK *1691:A0 0.000111639
45 *1806:D *1691:A0 0.000335847
46 *1832:A *1691:A0 3.11088e-05
47 *1834:A *486:35 0
48 *152:29 *486:70 0.000146071
49 *153:12 *486:70 8.91822e-05
50 *166:10 *486:70 2.79092e-05
51 *166:36 *486:70 1.18927e-05
52 *223:14 *486:70 0.000214095
53 *225:26 *486:70 4.19624e-06
54 *229:16 *486:70 0
55 *238:10 *486:70 0
56 *263:12 *486:70 0
57 *266:28 *486:35 0
58 *277:17 *486:70 0.00016962
59 *303:47 *486:35 1.44979e-05
60 *339:26 *486:35 8.25843e-06
61 *383:156 *486:70 9.87648e-05
62 *387:29 *1691:A0 7.10395e-05
63 *477:12 *1691:A0 0.000101207
64 *477:12 *486:70 0.000272665
65 *478:23 *486:70 0
66 *478:36 *486:70 0
67 *481:37 *486:70 7.97786e-05
*RES
1 *1792:Q *486:18 31.3714 
2 *486:18 *1656:B2 14.5321 
3 *486:18 *486:35 32.0357 
4 *486:35 *1691:A0 43.8 
5 *486:35 *486:70 44.6071 
6 *486:70 *1658:A1 9.3 
*END

*D_NET *487 0.0138093
*CONN
*I *1656:A1 I *D sky130_fd_sc_hd__a22o_1
*I *1689:A0 I *D sky130_fd_sc_hd__mux2_1
*I *1654:B2 I *D sky130_fd_sc_hd__a22o_1
*I *1793:Q O *D sky130_fd_sc_hd__dfrtp_1
*CAP
1 *1656:A1 0
2 *1689:A0 0.000793177
3 *1654:B2 0.000326071
4 *1793:Q 0
5 *487:53 0.00273209
6 *487:43 0.00289085
7 *487:4 0.00127801
8 *1653:A1 *487:43 4.35597e-05
9 *1655:B1 *1654:B2 6.81869e-05
10 *1656:A2 *487:53 5.71472e-05
11 *1656:B1 *487:53 3.45371e-05
12 *1656:B2 *487:43 0
13 *1684:A *1689:A0 0.00017802
14 *1688:A *487:43 5.65955e-05
15 *1690:A *1689:A0 0.000139907
16 *1722:A *1689:A0 0.000171548
17 *1777:D *487:43 0.000183972
18 *1777:RESET_B *487:43 5.33005e-05
19 *1782:D *487:53 0.000154027
20 *1793:RESET_B *1654:B2 2.58757e-05
21 *1834:A *487:43 2.56694e-05
22 *1881:A *1689:A0 5.59013e-05
23 *1888:A *487:43 9.71118e-06
24 *266:79 *1654:B2 8.69323e-05
25 *266:79 *487:43 0.00014285
26 *303:63 *487:43 8.43535e-06
27 *303:73 *487:43 1.98839e-05
28 *314:65 *1654:B2 9.00763e-05
29 *314:73 *1654:B2 3.10885e-05
30 *314:73 *487:43 0.000119297
31 *314:73 *487:53 0
32 *314:86 *487:43 1.74352e-05
33 *314:86 *487:53 0.000186662
34 *359:22 *1689:A0 0.000523364
35 *359:32 *1689:A0 2.11419e-05
36 *382:84 *1654:B2 3.18676e-05
37 *382:117 *1689:A0 0.000214367
38 *382:117 *487:53 0.00175443
39 *383:86 *487:43 0.000390972
40 *383:99 *487:43 0.000353382
41 *388:80 *1689:A0 0
42 *388:94 *1689:A0 0
43 *388:105 *1689:A0 0
44 *405:10 *1689:A0 0.000148189
45 *412:8 *487:43 9.90431e-05
46 *486:18 *487:43 0.000152929
47 *486:18 *487:53 0.000138813
48 *486:35 *487:43 0
*RES
1 *1793:Q *487:4 9.3 
2 *487:4 *1654:B2 23.4786 
3 *487:4 *487:43 30.6429 
4 *487:43 *487:53 33.4286 
5 *487:53 *1689:A0 32.2821 
6 *487:43 *1656:A1 9.3 
*END

*D_NET *488 0.0039898
*CONN
*I *1687:A0 I *D sky130_fd_sc_hd__mux2_1
*I *1652:B2 I *D sky130_fd_sc_hd__a22o_1
*I *1654:A1 I *D sky130_fd_sc_hd__a22o_1
*I *1794:Q O *D sky130_fd_sc_hd__dfrtp_1
*CAP
1 *1687:A0 0.000174139
2 *1652:B2 0.000100109
3 *1654:A1 0.000186617
4 *1794:Q 0
5 *488:16 0.000653123
6 *488:4 0.000540536
7 *1652:B2 *1650:A1 5.50052e-05
8 *1654:A2 *1652:B2 0.000136166
9 *1654:A2 *1654:A1 0.000375222
10 *1655:B1 *1654:A1 9.60875e-05
11 *1687:A1 *1687:A0 0.000101346
12 *1687:S *1687:A0 1.43288e-05
13 *1688:A *1687:A0 0
14 *1777:CLK *1654:A1 0
15 *1794:D *488:16 9.54798e-06
16 *1794:RESET_B *1687:A0 0
17 *259:141 *1652:B2 9.15842e-06
18 *303:63 *1687:A0 0.000172759
19 *303:63 *488:16 0.000186765
20 *314:48 *1652:B2 4.27842e-06
21 *314:52 *1652:B2 5.50052e-05
22 *338:32 *1687:A0 0.000100931
23 *338:32 *488:16 0.000512464
24 *359:32 *1687:A0 4.22135e-06
25 *382:84 *1654:A1 4.01768e-05
26 *383:86 *1654:A1 0.000265085
27 *383:86 *488:16 5.33005e-05
28 *387:29 *488:16 5.4923e-05
29 *387:46 *488:16 7.29023e-05
30 *387:52 *488:16 1.56e-05
*RES
1 *1794:Q *488:4 9.3 
2 *488:4 *488:16 23.1071 
3 *488:16 *1654:A1 19.7286 
4 *488:16 *1652:B2 16.2821 
5 *488:4 *1687:A0 22.7464 
*END

*D_NET *489 0.0131711
*CONN
*I *1652:A1 I *D sky130_fd_sc_hd__a22o_1
*I *1650:B2 I *D sky130_fd_sc_hd__a22o_1
*I *1685:A0 I *D sky130_fd_sc_hd__mux2_1
*I *1795:Q O *D sky130_fd_sc_hd__dfrtp_1
*CAP
1 *1652:A1 0.000265249
2 *1650:B2 0
3 *1685:A0 0
4 *1795:Q 5.4247e-05
5 *489:31 0.000325471
6 *489:24 0.00115272
7 *489:18 0.00292897
8 *489:10 0.00189072
9 *1652:A1 *1650:A1 2.38501e-05
10 *1634:A1 *489:18 0.000200413
11 *1650:B1 *1652:A1 0.000378007
12 *1651:B1 *1652:A1 1.97617e-05
13 *1651:B1 *489:10 7.74068e-05
14 *1651:B1 *489:18 2.59355e-05
15 *1651:B1 *489:31 6.62144e-05
16 *1652:B1 *1652:A1 2.8451e-05
17 *1674:B2 *489:24 4.29272e-05
18 *1694:A *489:24 4.15914e-05
19 *1775:D *489:18 0
20 *1813:CLK *489:24 0
21 *1894:A *489:24 0.000291652
22 *163:61 *1652:A1 0.000463959
23 *314:52 *1652:A1 0.00024547
24 *381:14 *489:24 0
25 *381:29 *489:18 0.00114487
26 *381:29 *489:24 0.00212273
27 *382:32 *489:24 0.000374617
28 *382:53 *489:24 0.000640307
29 *382:72 *489:18 0
30 *382:72 *489:24 0
31 *383:48 *489:10 0.000124012
32 *389:73 *489:24 0
33 *389:98 *489:24 0.000113372
34 *403:12 *489:24 0.000128154
*RES
1 *1795:Q *489:10 19.9429 
2 *489:10 *489:18 40.1339 
3 *489:18 *489:24 41.5446 
4 *489:24 *1685:A0 9.3 
5 *489:10 *489:31 1.35714 
6 *489:31 *1650:B2 9.3 
7 *489:31 *1652:A1 18.1214 
*END

*D_NET *490 0.010643
*CONN
*I *1683:A0 I *D sky130_fd_sc_hd__mux2_1
*I *1648:B2 I *D sky130_fd_sc_hd__a22o_1
*I *1650:A1 I *D sky130_fd_sc_hd__a22o_1
*I *1796:Q O *D sky130_fd_sc_hd__dfrtp_1
*CAP
1 *1683:A0 0.00194674
2 *1648:B2 0.00011807
3 *1650:A1 0.00171556
4 *1796:Q 0
5 *490:10 0.00197251
6 *490:4 0.00208562
7 *1640:A0 *1648:B2 0.000167477
8 *1640:A0 *1650:A1 0.000104036
9 *1648:A2 *1648:B2 1.29777e-05
10 *1648:B1 *1648:B2 0.000100165
11 *1650:A2 *1650:A1 0.000354066
12 *1650:B1 *1650:A1 2.38501e-05
13 *1651:B1 *1650:A1 0.000143633
14 *1652:A1 *1650:A1 2.38501e-05
15 *1652:A2 *1650:A1 5.66971e-05
16 *1652:B1 *1650:A1 5.66971e-05
17 *1652:B2 *1650:A1 5.50052e-05
18 *1653:B1 *1650:A1 9.41642e-05
19 *1684:A *1683:A0 9.97875e-06
20 *1792:CLK *1650:A1 0.000100082
21 *1809:D *1683:A0 3.54498e-05
22 *1833:A *1683:A0 3.82806e-05
23 *163:61 *1650:A1 0.000242861
24 *163:61 *1683:A0 9.58632e-05
25 *163:61 *490:10 0.000220159
26 *259:133 *1648:B2 2.94347e-05
27 *303:20 *1648:B2 3.57258e-05
28 *303:20 *1650:A1 3.45592e-05
29 *314:52 *1650:A1 3.04236e-05
30 *388:18 *1683:A0 9.96553e-05
31 *388:41 *1650:A1 0.000167342
32 *388:41 *1683:A0 4.17702e-05
33 *388:41 *490:10 0.000220159
34 *388:65 *1683:A0 1.4796e-05
35 *469:37 *1683:A0 3.83493e-06
36 *471:12 *1683:A0 0.000115295
37 *471:18 *1683:A0 7.62237e-05
*RES
1 *1796:Q *490:4 9.3 
2 *490:4 *490:10 7.625 
3 *490:10 *1650:A1 41.6929 
4 *490:10 *1648:B2 17.1214 
5 *490:4 *1683:A0 42.6929 
*END

*D_NET *491 0.0195967
*CONN
*I *1647:A1 I *D sky130_fd_sc_hd__a221o_1
*I *1681:A0 I *D sky130_fd_sc_hd__mux2_1
*I *1648:A1 I *D sky130_fd_sc_hd__a22o_1
*I *1797:Q O *D sky130_fd_sc_hd__dfrtp_2
*CAP
1 *1647:A1 0
2 *1681:A0 0.00114644
3 *1648:A1 0.00330043
4 *1797:Q 0.000116781
5 *491:61 0.00202551
6 *491:43 0.00124239
7 *491:8 0.00378053
8 *1512:B *491:61 0.000172461
9 *1513:A *1681:A0 0.000182098
10 *1513:A *491:61 5.19522e-06
11 *1513:B *491:61 0.000373436
12 *1570:A1 *1681:A0 0
13 *1571:A *1681:A0 2.04593e-05
14 *1576:A1 *1681:A0 7.83659e-05
15 *1576:B2 *1681:A0 5.33882e-05
16 *1586:A1 *491:61 0
17 *1586:A2 *491:43 0
18 *1586:B1 *491:61 8.47107e-05
19 *1586:B2 *491:61 0.000101545
20 *1647:A2 *491:43 3.28686e-05
21 *1647:B2 *491:61 2.38282e-05
22 *1647:C1 *1648:A1 0.000623377
23 *1660:B2 *1648:A1 4.21517e-05
24 *1660:B2 *491:8 0.000165601
25 *1681:A1 *1681:A0 0.000129868
26 *1742:A *491:43 0.000359525
27 *1790:CLK *491:61 5.76839e-05
28 *1797:D *491:61 9.25014e-06
29 *1822:A *1648:A1 1.87931e-05
30 *1831:A *1681:A0 0
31 *1891:A *1681:A0 0
32 *3:23 *1648:A1 0.00204908
33 *163:22 *491:61 4.15161e-05
34 *254:82 *1681:A0 0.000142904
35 *254:82 *491:61 0.000299235
36 *263:43 *491:43 5.04841e-06
37 *263:43 *491:61 0
38 *278:61 *1681:A0 0.000640976
39 *303:20 *1648:A1 2.45807e-05
40 *314:10 *491:43 0.000232539
41 *359:32 *1648:A1 0.000301073
42 *386:20 *1648:A1 0.000231829
43 *386:50 *1648:A1 0.000327777
44 *388:14 *1648:A1 1.65027e-05
45 *462:19 *1681:A0 0.000121902
46 *462:23 *1681:A0 2.7814e-05
47 *473:8 *491:43 2.16514e-05
48 *473:8 *491:61 0.00059995
49 *475:8 *1681:A0 0
50 *475:14 *1681:A0 0
51 *475:18 *1681:A0 0.000365682
*RES
1 *1797:Q *491:8 16.05 
2 *491:8 *1648:A1 38.0031 
3 *491:8 *491:43 11.625 
4 *491:43 *491:61 30.9911 
5 *491:61 *1681:A0 40.4875 
6 *491:43 *1647:A1 9.3 
*END

*D_NET *492 0.0139223
*CONN
*I *1424:A I *D sky130_fd_sc_hd__inv_2
*I *1458:A1 I *D sky130_fd_sc_hd__o211a_1
*I *1455:A1 I *D sky130_fd_sc_hd__o21a_1
*I *1463:A2 I *D sky130_fd_sc_hd__o21ai_1
*I *1527:B I *D sky130_fd_sc_hd__nand2_4
*I *1489:A1 I *D sky130_fd_sc_hd__o211ai_1
*I *1420:A_N I *D sky130_fd_sc_hd__and2b_1
*I *1444:A1 I *D sky130_fd_sc_hd__o21ai_1
*I *1696:B2 I *D sky130_fd_sc_hd__a22o_1
*I *1772:Q O *D sky130_fd_sc_hd__dfrtp_4
*CAP
1 *1424:A 0.000502277
2 *1458:A1 0.000403341
3 *1455:A1 4.03444e-05
4 *1463:A2 0
5 *1527:B 0
6 *1489:A1 9.9823e-05
7 *1420:A_N 0
8 *1444:A1 9.03218e-05
9 *1696:B2 2.25455e-05
10 *1772:Q 0.000843706
11 *492:68 0.000268957
12 *492:66 0.000528347
13 *492:58 0.000497533
14 *492:48 0.000277345
15 *492:44 0.000838864
16 *492:42 0.000934247
17 *492:29 0.00139837
18 *492:14 0.00207917
19 *1420:B *492:68 7.86973e-05
20 *1429:A *1424:A 1.05731e-05
21 *1429:B *1424:A 4.58402e-06
22 *1429:B *1444:A1 5.50052e-05
23 *1429:B *492:42 2.03801e-05
24 *1429:B *492:44 1.44644e-05
25 *1440:A *492:42 0
26 *1444:A2 *1424:A 0.000100989
27 *1444:A2 *1444:A1 5.50052e-05
28 *1453:B1_N *1455:A1 0.000141131
29 *1454:A *1458:A1 1.15281e-05
30 *1454:B *1458:A1 3.69047e-06
31 *1455:A2 *1455:A1 5.65955e-05
32 *1456:A1 *1458:A1 4.15183e-05
33 *1456:B1 *1455:A1 3.98559e-05
34 *1458:C1 *1458:A1 0
35 *1461:A *492:44 1.65758e-05
36 *1463:B1 *1455:A1 0.000129515
37 *1463:B1 *492:58 0.000315598
38 *1464:A1 *492:48 3.12221e-05
39 *1464:A2 *1455:A1 6.05161e-06
40 *1464:A2 *492:58 5.20056e-05
41 *1464:B1 *492:58 6.26591e-05
42 *1464:B2 *492:58 5.71472e-05
43 *1489:A2 *1489:A1 0.000223558
44 *1489:A2 *492:68 7.12598e-05
45 *1505:A1 *492:44 7.03243e-05
46 *1507:C *1424:A 1.21258e-05
47 *1601:A2 *492:29 0.000123734
48 *1609:A3 *1458:A1 3.61629e-06
49 *1696:A2 *492:14 0.000136733
50 *147:14 *492:66 0
51 *148:16 *492:66 0.000119203
52 *148:26 *492:44 0.000431178
53 *148:35 *1424:A 0.000473097
54 *151:6 *1424:A 3.11088e-05
55 *166:73 *492:44 3.52655e-05
56 *170:31 *492:66 0.000273269
57 *170:50 *492:58 2.34077e-05
58 *170:50 *492:66 4.38128e-05
59 *172:68 *492:42 0.000134667
60 *172:68 *492:44 0.000107273
61 *179:14 *1458:A1 0.000141131
62 *179:14 *492:44 0.000118995
63 *179:40 *1458:A1 0.000251121
64 *181:10 *492:44 5.25862e-06
65 *181:10 *492:48 9.17955e-06
66 *181:23 *1455:A1 1.59105e-05
67 *216:6 *1489:A1 0.000120519
68 *228:39 *492:29 0.00015038
69 *228:43 *492:29 0.000431371
70 *228:56 *492:29 9.58632e-05
71 *259:129 *492:48 0
72 *266:28 *492:66 0
73 *480:33 *1489:A1 2.44318e-05
74 *480:33 *492:68 4.24946e-05
75 *480:75 *1458:A1 2.06178e-05
76 *481:59 *492:48 5.14458e-05
*RES
1 *1772:Q *492:14 31.4786 
2 *492:14 *1696:B2 9.72857 
3 *492:14 *492:29 21.125 
4 *492:29 *1444:A1 11.0679 
5 *492:29 *492:42 6.8125 
6 *492:42 *492:44 8.79464 
7 *492:44 *492:48 6.44643 
8 *492:48 *492:58 4.92857 
9 *492:58 *492:66 16.6071 
10 *492:66 *492:68 3.82143 
11 *492:68 *1420:A_N 9.3 
12 *492:68 *1489:A1 12.7464 
13 *492:66 *1527:B 9.3 
14 *492:58 *1463:A2 9.3 
15 *492:48 *1455:A1 11.4786 
16 *492:44 *1458:A1 28.175 
17 *492:42 *1424:A 30.4161 
*END

*D_NET *493 0.00190873
*CONN
*I *1663:A I *D sky130_fd_sc_hd__nand2_4
*I *1529:A I *D sky130_fd_sc_hd__inv_2
*I *1435:A I *D sky130_fd_sc_hd__clkbuf_4
*I *1771:Q O *D sky130_fd_sc_hd__dfrtp_2
*CAP
1 *1663:A 3.18796e-05
2 *1529:A 0.000113493
3 *1435:A 4.13023e-05
4 *1771:Q 5.67602e-05
5 *493:14 0.000470556
6 *493:12 0.000404401
7 *1636:A0 *493:12 8.00806e-05
8 *1663:B *1663:A 0
9 *1663:B *493:14 4.87854e-05
10 *162:8 *1435:A 3.67257e-05
11 *163:124 *493:12 4.15914e-05
12 *258:16 *1435:A 0.000140933
13 *258:16 *1529:A 0.000126137
14 *258:16 *493:14 9.71197e-05
15 *259:98 *1529:A 8.09984e-05
16 *381:73 *493:14 1.39841e-05
17 *420:16 *1663:A 5.52302e-05
18 *420:16 *493:14 6.87574e-05
*RES
1 *1771:Q *493:12 19.7643 
2 *493:12 *493:14 5.46429 
3 *493:14 *1435:A 10.6571 
4 *493:14 *1529:A 21.4607 
5 *493:12 *1663:A 10.2643 
*END

*D_NET *494 0.0035948
*CONN
*I *1662:D_N I *D sky130_fd_sc_hd__nor4b_1
*I *1665:D_N I *D sky130_fd_sc_hd__or4b_2
*I *1697:C I *D sky130_fd_sc_hd__or4_1
*I *1700:A I *D sky130_fd_sc_hd__or2_1
*I *1852:A I *D sky130_fd_sc_hd__dlygate4sd3_1
*I *1858:A I *D sky130_fd_sc_hd__dlygate4sd3_1
*I *1767:Q O *D sky130_fd_sc_hd__dfrtp_1
*CAP
1 *1662:D_N 0.000248731
2 *1665:D_N 3.59055e-05
3 *1697:C 0.000110596
4 *1700:A 3.75433e-05
5 *1852:A 0
6 *1858:A 0.000199746
7 *1767:Q 4.33592e-05
8 *494:47 0.000166866
9 *494:43 0.000443867
10 *494:32 0.000322069
11 *494:23 0.000180005
12 *494:8 0.000313355
13 *1662:D_N *495:38 0
14 *1665:D_N *1697:A 5.84203e-05
15 *1697:C *1697:A 7.98928e-05
16 *1700:B *1700:A 5.52302e-05
17 *1705:A1 *1858:A 7.8195e-05
18 *1705:B1_N *1858:A 0.000141729
19 *1767:CLK *494:8 2.89114e-05
20 *1767:RESET_B *1858:A 4.72217e-05
21 *256:68 *1697:C 5.46383e-06
22 *256:72 *1662:D_N 0
23 *256:72 *494:43 0
24 *339:10 *494:23 2.83284e-06
25 *339:10 *494:32 4.856e-05
26 *339:10 *494:43 1.50179e-05
27 *339:16 *1858:A 0
28 *339:16 *494:23 3.43988e-06
29 *339:139 *1700:A 7.27365e-05
30 *361:28 *1662:D_N 5.80706e-06
31 *361:28 *494:23 4.04359e-05
32 *361:28 *494:32 5.41797e-05
33 *361:28 *494:43 0.000184645
34 *375:12 *1662:D_N 0.000115777
35 *388:163 *1858:A 0.000169987
36 *400:22 *1700:A 7.03685e-05
37 *482:38 *1858:A 1.80637e-05
38 *482:38 *494:23 0.000117481
39 *482:38 *494:32 7.83587e-05
*RES
1 *1767:Q *494:8 14.3357 
2 *494:8 *1858:A 18.8536 
3 *494:8 *494:23 1.64286 
4 *494:23 *1852:A 13.8 
5 *494:23 *494:32 2.55357 
6 *494:32 *1700:A 15.1571 
7 *494:32 *494:43 4.375 
8 *494:43 *494:47 4.92857 
9 *494:47 *1697:C 11.4964 
10 *494:47 *1665:D_N 10.2643 
11 *494:43 *1662:D_N 17.6214 
*END

*D_NET *495 0.00441394
*CONN
*I *1662:C I *D sky130_fd_sc_hd__nor4b_1
*I *1697:B I *D sky130_fd_sc_hd__or4_1
*I *1665:C I *D sky130_fd_sc_hd__or4b_2
*I *1851:A I *D sky130_fd_sc_hd__dlygate4sd3_1
*I *1856:A I *D sky130_fd_sc_hd__dlygate4sd3_1
*I *1768:Q O *D sky130_fd_sc_hd__dfrtp_1
*CAP
1 *1662:C 0
2 *1697:B 0.000127024
3 *1665:C 0
4 *1851:A 0
5 *1856:A 2.52229e-05
6 *1768:Q 0.000259988
7 *495:61 0.000616987
8 *495:38 0.000903623
9 *495:21 0.000503145
10 *495:10 0.000374696
11 *495:38 *1665:A 6.06076e-05
12 *495:38 *1697:A 1.21289e-05
13 *495:61 *1662:A 0.000104406
14 *495:61 *1662:B 1.02911e-05
15 *495:61 *1665:A 7.27163e-05
16 *495:61 *497:8 1.13186e-05
17 *1531:B1 *495:61 1.19813e-05
18 *1662:D_N *495:38 0
19 *1698:A2 *1697:B 5.54817e-06
20 *1701:A1 *495:38 0.000408072
21 *1701:A2 *495:38 1.23589e-05
22 *1702:B *495:61 5.28442e-06
23 *1749:A *495:21 0
24 *1768:RESET_B *495:10 4.79842e-05
25 *1768:RESET_B *495:21 5.0725e-05
26 *1769:CLK *495:61 0.000136682
27 *257:10 *1697:B 7.80183e-05
28 *381:100 *495:21 9.25014e-06
29 *381:100 *495:38 0.000336382
30 *400:22 *495:10 6.5185e-05
31 *400:22 *495:21 0.000103285
32 *400:22 *495:38 5.80706e-06
33 *415:27 *495:38 0
34 *428:6 *1856:A 5.52238e-05
*RES
1 *1768:Q *495:10 17.6214 
2 *495:10 *1856:A 14.3357 
3 *495:10 *495:21 2.55357 
4 *495:21 *1851:A 13.8 
5 *495:21 *495:38 17.5179 
6 *495:38 *1665:C 13.8 
7 *495:38 *495:61 13.2321 
8 *495:61 *1697:B 20.7821 
9 *495:61 *1662:C 9.3 
*END

*D_NET *496 0.00620104
*CONN
*I *1855:A I *D sky130_fd_sc_hd__dlygate4sd3_1
*I *1697:A I *D sky130_fd_sc_hd__or4_1
*I *1665:B I *D sky130_fd_sc_hd__or4b_2
*I *1662:B I *D sky130_fd_sc_hd__nor4b_1
*I *1769:Q O *D sky130_fd_sc_hd__dfrtp_1
*CAP
1 *1855:A 0.000214137
2 *1697:A 0.00025168
3 *1665:B 0.000192943
4 *1662:B 0.000919604
5 *1769:Q 0
6 *496:19 0.000851719
7 *496:17 0.000803809
8 *496:4 0.00110218
9 *1662:B *1662:A 0.000283264
10 *1697:A *1665:A 7.45474e-05
11 *1665:D_N *1697:A 5.84203e-05
12 *1697:C *1697:A 7.98928e-05
13 *1701:A1 *1697:A 4.23557e-05
14 *1701:A1 *1855:A 5.49995e-05
15 *1701:A1 *496:19 6.93704e-06
16 *1701:B1 *1697:A 5.33005e-05
17 *1701:C1 *1855:A 0.000269741
18 *1701:C1 *496:19 0.000211414
19 *1702:B *1665:B 0.00022272
20 *1702:B *1697:A 0.000397186
21 *1769:D *1662:B 1.0484e-05
22 *1874:A *1855:A 0
23 *256:68 *1697:A 8.48678e-06
24 *361:28 *1697:A 1.79203e-05
25 *375:12 *1697:A 5.08831e-05
26 *495:38 *1697:A 1.21289e-05
27 *495:61 *1662:B 1.02911e-05
*RES
1 *1769:Q *496:4 9.3 
2 *496:4 *1662:B 20.425 
3 *496:4 *496:17 2.80357 
4 *496:17 *496:19 5.875 
5 *496:19 *1665:B 11.8893 
6 *496:19 *1697:A 16.7464 
7 *496:17 *1855:A 14.5679 
*END

*D_NET *497 0.00274612
*CONN
*I *1837:A I *D sky130_fd_sc_hd__dlygate4sd3_1
*I *1665:A I *D sky130_fd_sc_hd__or4b_2
*I *1662:A I *D sky130_fd_sc_hd__nor4b_1
*I *1770:Q O *D sky130_fd_sc_hd__dfrtp_1
*CAP
1 *1837:A 3.04135e-05
2 *1665:A 0.000208926
3 *1662:A 0.000198064
4 *1770:Q 0
5 *497:8 0.000590261
6 *497:4 0.000213684
7 *1662:B *1662:A 0.000283264
8 *1697:A *1665:A 7.45474e-05
9 *1701:A1 *1665:A 3.40728e-05
10 *1701:A2 *1665:A 1.00887e-05
11 *1769:CLK *1662:A 0.000136682
12 *1769:CLK *497:8 0
13 *1769:D *1662:A 2.59355e-05
14 *1769:D *497:8 7.74068e-05
15 *339:154 *1665:A 0.000157443
16 *339:154 *497:8 0.000402981
17 *381:90 *1837:A 5.33005e-05
18 *495:38 *1665:A 6.06076e-05
19 *495:61 *1662:A 0.000104406
20 *495:61 *1665:A 7.27163e-05
21 *495:61 *497:8 1.13186e-05
*RES
1 *1770:Q *497:4 9.3 
2 *497:4 *497:8 9.63393 
3 *497:8 *1662:A 19.8268 
4 *497:8 *1665:A 18.9518 
5 *497:4 *1837:A 9.83571 
*END
