*SPEF "ieee 1481-1999"
*DESIGN "user_project_wrapper"
*DATE "11:11:11 Fri 11 11, 1111"
*VENDOR "OpenRCX"
*PROGRAM "Parallel Extraction"
*VERSION "1.0"
*DESIGN_FLOW "NAME_SCOPE LOCAL" "PIN_CAP NONE"
*DIVIDER /
*DELIMITER :
*BUS_DELIMITER []
*T_UNIT 1 NS
*C_UNIT 1 PF
*R_UNIT 1 OHM
*L_UNIT 1 HENRY

*NAME_MAP
*1 analog_io[0]
*2 analog_io[10]
*3 analog_io[11]
*4 analog_io[12]
*5 analog_io[13]
*6 analog_io[14]
*7 analog_io[15]
*8 analog_io[16]
*9 analog_io[17]
*10 analog_io[18]
*11 analog_io[19]
*12 analog_io[1]
*13 analog_io[20]
*14 analog_io[21]
*15 analog_io[22]
*16 analog_io[23]
*17 analog_io[24]
*18 analog_io[25]
*19 analog_io[26]
*20 analog_io[27]
*21 analog_io[28]
*22 analog_io[2]
*23 analog_io[3]
*24 analog_io[4]
*25 analog_io[5]
*26 analog_io[6]
*27 analog_io[7]
*28 analog_io[8]
*29 analog_io[9]
*30 io_in[0]
*31 io_in[10]
*32 io_in[11]
*33 io_in[12]
*34 io_in[13]
*35 io_in[14]
*36 io_in[15]
*37 io_in[16]
*38 io_in[17]
*39 io_in[18]
*40 io_in[19]
*41 io_in[1]
*42 io_in[20]
*43 io_in[21]
*44 io_in[22]
*45 io_in[23]
*46 io_in[24]
*47 io_in[25]
*48 io_in[26]
*49 io_in[27]
*50 io_in[28]
*51 io_in[29]
*52 io_in[2]
*53 io_in[30]
*54 io_in[31]
*55 io_in[32]
*56 io_in[33]
*57 io_in[34]
*58 io_in[35]
*59 io_in[36]
*60 io_in[37]
*61 io_in[3]
*62 io_in[4]
*63 io_in[5]
*64 io_in[6]
*65 io_in[7]
*66 io_in[8]
*67 io_in[9]
*68 zero_
*69 one_
*70 io_out[0]
*71 io_out[10]
*72 io_out[11]
*73 io_out[12]
*74 io_out[13]
*75 io_out[14]
*76 io_out[15]
*77 done
*78 io_out[1]
*79 io_out[2]
*80 io_out[3]
*81 io_out[4]
*82 io_out[5]
*83 io_out[6]
*84 io_out[7]
*85 io_out[8]
*86 io_out[9]
*87 la_data_in[0]
*88 la_data_in[100]
*89 la_data_in[101]
*90 la_data_in[102]
*91 la_data_in[103]
*92 la_data_in[104]
*93 la_data_in[105]
*94 la_data_in[106]
*95 la_data_in[107]
*96 la_data_in[108]
*97 la_data_in[109]
*98 la_data_in[10]
*99 la_data_in[110]
*100 la_data_in[111]
*101 la_data_in[112]
*102 la_data_in[113]
*103 la_data_in[114]
*104 la_data_in[115]
*105 la_data_in[116]
*106 la_data_in[117]
*107 la_data_in[118]
*108 la_data_in[119]
*109 la_data_in[11]
*110 la_data_in[120]
*111 la_data_in[121]
*112 la_data_in[122]
*113 la_data_in[123]
*114 la_data_in[124]
*115 la_data_in[125]
*116 la_data_in[126]
*117 la_data_in[127]
*118 la_data_in[12]
*119 la_data_in[13]
*120 la_data_in[14]
*121 la_data_in[15]
*122 la_data_in[16]
*123 la_data_in[17]
*124 la_data_in[18]
*125 la_data_in[19]
*126 la_data_in[1]
*127 la_data_in[20]
*128 la_data_in[21]
*129 la_data_in[22]
*130 la_data_in[23]
*131 la_data_in[24]
*132 la_data_in[25]
*133 la_data_in[26]
*134 la_data_in[27]
*135 la_data_in[28]
*136 la_data_in[29]
*137 la_data_in[2]
*138 la_data_in[30]
*139 la_data_in[31]
*140 la_data_in[32]
*141 la_data_in[33]
*142 la_data_in[34]
*143 la_data_in[35]
*144 la_data_in[36]
*145 la_data_in[37]
*146 la_data_in[38]
*147 la_data_in[39]
*148 la_data_in[3]
*149 la_data_in[40]
*150 la_data_in[41]
*151 la_data_in[42]
*152 la_data_in[43]
*153 la_data_in[44]
*154 la_data_in[45]
*155 la_data_in[46]
*156 la_data_in[47]
*157 la_data_in[48]
*158 la_data_in[49]
*159 la_data_in[4]
*160 la_data_in[50]
*161 la_data_in[51]
*162 la_data_in[52]
*163 la_data_in[53]
*164 la_data_in[54]
*165 la_data_in[55]
*166 la_data_in[56]
*167 la_data_in[57]
*168 la_data_in[58]
*169 la_data_in[59]
*170 la_data_in[5]
*171 la_data_in[60]
*172 la_data_in[61]
*173 la_data_in[62]
*174 la_data_in[63]
*175 la_data_in[64]
*176 la_data_in[65]
*177 la_data_in[66]
*178 la_data_in[67]
*179 la_data_in[68]
*180 la_data_in[69]
*181 la_data_in[6]
*182 la_data_in[70]
*183 la_data_in[71]
*184 la_data_in[72]
*185 la_data_in[73]
*186 la_data_in[74]
*187 la_data_in[75]
*188 la_data_in[76]
*189 la_data_in[77]
*190 la_data_in[78]
*191 la_data_in[79]
*192 la_data_in[7]
*193 la_data_in[80]
*194 la_data_in[81]
*195 la_data_in[82]
*196 la_data_in[83]
*197 la_data_in[84]
*198 la_data_in[85]
*199 la_data_in[86]
*200 la_data_in[87]
*201 la_data_in[88]
*202 la_data_in[89]
*203 la_data_in[8]
*204 la_data_in[90]
*205 la_data_in[91]
*206 la_data_in[92]
*207 la_data_in[93]
*208 la_data_in[94]
*209 la_data_in[95]
*210 la_data_in[96]
*211 la_data_in[97]
*212 la_data_in[98]
*213 la_data_in[99]
*214 la_data_in[9]
*215 la_oenb[0]
*216 la_oenb[100]
*217 la_oenb[101]
*218 la_oenb[102]
*219 la_oenb[103]
*220 la_oenb[104]
*221 la_oenb[105]
*222 la_oenb[106]
*223 la_oenb[107]
*224 la_oenb[108]
*225 la_oenb[109]
*226 la_oenb[10]
*227 la_oenb[110]
*228 la_oenb[111]
*229 la_oenb[112]
*230 la_oenb[113]
*231 la_oenb[114]
*232 la_oenb[115]
*233 la_oenb[116]
*234 la_oenb[117]
*235 la_oenb[118]
*236 la_oenb[119]
*237 la_oenb[11]
*238 la_oenb[120]
*239 la_oenb[121]
*240 la_oenb[122]
*241 la_oenb[123]
*242 la_oenb[124]
*243 la_oenb[125]
*244 la_oenb[126]
*245 la_oenb[127]
*246 la_oenb[12]
*247 la_oenb[13]
*248 la_oenb[14]
*249 la_oenb[15]
*250 la_oenb[16]
*251 la_oenb[17]
*252 la_oenb[18]
*253 la_oenb[19]
*254 la_oenb[1]
*255 la_oenb[20]
*256 la_oenb[21]
*257 la_oenb[22]
*258 la_oenb[23]
*259 la_oenb[24]
*260 la_oenb[25]
*261 la_oenb[26]
*262 la_oenb[27]
*263 la_oenb[28]
*264 la_oenb[29]
*265 la_oenb[2]
*266 la_oenb[30]
*267 la_oenb[31]
*268 la_oenb[32]
*269 la_oenb[33]
*270 la_oenb[34]
*271 la_oenb[35]
*272 la_oenb[36]
*273 la_oenb[37]
*274 la_oenb[38]
*275 la_oenb[39]
*276 la_oenb[3]
*277 la_oenb[40]
*278 la_oenb[41]
*279 la_oenb[42]
*280 la_oenb[43]
*281 la_oenb[44]
*282 la_oenb[45]
*283 la_oenb[46]
*284 la_oenb[47]
*285 la_oenb[48]
*286 la_oenb[49]
*287 la_oenb[4]
*288 la_oenb[50]
*289 la_oenb[51]
*290 la_oenb[52]
*291 la_oenb[53]
*292 la_oenb[54]
*293 la_oenb[55]
*294 la_oenb[56]
*295 la_oenb[57]
*296 la_oenb[58]
*297 la_oenb[59]
*298 la_oenb[5]
*299 la_oenb[60]
*300 la_oenb[61]
*301 la_oenb[62]
*302 la_oenb[63]
*303 la_oenb[64]
*304 la_oenb[65]
*305 la_oenb[66]
*306 la_oenb[67]
*307 la_oenb[68]
*308 la_oenb[69]
*309 la_oenb[6]
*310 la_oenb[70]
*311 la_oenb[71]
*312 la_oenb[72]
*313 la_oenb[73]
*314 la_oenb[74]
*315 la_oenb[75]
*316 la_oenb[76]
*317 la_oenb[77]
*318 la_oenb[78]
*319 la_oenb[79]
*320 la_oenb[7]
*321 la_oenb[80]
*322 la_oenb[81]
*323 la_oenb[82]
*324 la_oenb[83]
*325 la_oenb[84]
*326 la_oenb[85]
*327 la_oenb[86]
*328 la_oenb[87]
*329 la_oenb[88]
*330 la_oenb[89]
*331 la_oenb[8]
*332 la_oenb[90]
*333 la_oenb[91]
*334 la_oenb[92]
*335 la_oenb[93]
*336 la_oenb[94]
*337 la_oenb[95]
*338 la_oenb[96]
*339 la_oenb[97]
*340 la_oenb[98]
*341 la_oenb[99]
*342 la_oenb[9]
*343 user_clock2
*352 wb_clk_i
*353 wb_rst_i
*354 wbs_adr_i[0]
*355 wbs_adr_i[10]
*356 wbs_adr_i[11]
*357 wbs_adr_i[12]
*358 wbs_adr_i[13]
*359 wbs_adr_i[14]
*360 wbs_adr_i[15]
*361 wbs_adr_i[16]
*362 wbs_adr_i[17]
*363 wbs_adr_i[18]
*364 wbs_adr_i[19]
*365 wbs_adr_i[1]
*366 wbs_adr_i[20]
*367 wbs_adr_i[21]
*368 wbs_adr_i[22]
*369 wbs_adr_i[23]
*370 wbs_adr_i[24]
*371 wbs_adr_i[25]
*372 wbs_adr_i[26]
*373 wbs_adr_i[27]
*374 wbs_adr_i[28]
*375 wbs_adr_i[29]
*376 wbs_adr_i[2]
*377 wbs_adr_i[30]
*378 wbs_adr_i[31]
*379 wbs_adr_i[3]
*380 wbs_adr_i[4]
*381 wbs_adr_i[5]
*382 wbs_adr_i[6]
*383 wbs_adr_i[7]
*384 wbs_adr_i[8]
*385 wbs_adr_i[9]
*386 wbs_cyc_i
*387 wbs_dat_i[0]
*388 wbs_dat_i[10]
*389 wbs_dat_i[11]
*390 wbs_dat_i[12]
*391 wbs_dat_i[13]
*392 wbs_dat_i[14]
*393 wbs_dat_i[15]
*394 wbs_dat_i[16]
*395 wbs_dat_i[17]
*396 wbs_dat_i[18]
*397 wbs_dat_i[19]
*398 wbs_dat_i[1]
*399 wbs_dat_i[20]
*400 wbs_dat_i[21]
*401 wbs_dat_i[22]
*402 wbs_dat_i[23]
*403 wbs_dat_i[24]
*404 wbs_dat_i[25]
*405 wbs_dat_i[26]
*406 wbs_dat_i[27]
*407 wbs_dat_i[28]
*408 wbs_dat_i[29]
*409 wbs_dat_i[2]
*410 wbs_dat_i[30]
*411 wbs_dat_i[31]
*412 wbs_dat_i[3]
*413 wbs_dat_i[4]
*414 wbs_dat_i[5]
*415 wbs_dat_i[6]
*416 wbs_dat_i[7]
*417 wbs_dat_i[8]
*418 wbs_dat_i[9]
*419 wbs_sel_i[0]
*420 wbs_sel_i[1]
*421 wbs_sel_i[2]
*422 wbs_sel_i[3]
*423 wbs_stb_i
*424 wbs_we_i
*425 TIE_ONE_one_
*426 TIE_ZERO_zero_
*427 booth8_inst

*PORTS
analog_io[0] I
analog_io[10] I
analog_io[11] I
analog_io[12] I
analog_io[13] I
analog_io[14] I
analog_io[15] I
analog_io[16] I
analog_io[17] I
analog_io[18] I
analog_io[19] I
analog_io[1] I
analog_io[20] I
analog_io[21] I
analog_io[22] I
analog_io[23] I
analog_io[24] I
analog_io[25] I
analog_io[26] I
analog_io[27] I
analog_io[28] I
analog_io[2] I
analog_io[3] I
analog_io[4] I
analog_io[5] I
analog_io[6] I
analog_io[7] I
analog_io[8] I
analog_io[9] I
io_in[0] I
io_in[10] I
io_in[11] I
io_in[12] I
io_in[13] I
io_in[14] I
io_in[15] I
io_in[16] I
io_in[17] I
io_in[18] I
io_in[19] I
io_in[1] I
io_in[20] I
io_in[21] I
io_in[22] I
io_in[23] I
io_in[24] I
io_in[25] I
io_in[26] I
io_in[27] I
io_in[28] I
io_in[29] I
io_in[2] I
io_in[30] I
io_in[31] I
io_in[32] I
io_in[33] I
io_in[34] I
io_in[35] I
io_in[36] I
io_in[37] I
io_in[3] I
io_in[4] I
io_in[5] I
io_in[6] I
io_in[7] I
io_in[8] I
io_in[9] I
io_oeb[0] O
io_oeb[10] O
io_oeb[11] O
io_oeb[12] O
io_oeb[13] O
io_oeb[14] O
io_oeb[15] O
io_oeb[16] O
io_oeb[17] O
io_oeb[18] O
io_oeb[19] O
io_oeb[1] O
io_oeb[20] O
io_oeb[21] O
io_oeb[22] O
io_oeb[23] O
io_oeb[24] O
io_oeb[25] O
io_oeb[26] O
io_oeb[27] O
io_oeb[28] O
io_oeb[29] O
io_oeb[2] O
io_oeb[30] O
io_oeb[31] O
io_oeb[32] O
io_oeb[33] O
io_oeb[34] O
io_oeb[35] O
io_oeb[36] O
io_oeb[37] O
io_oeb[3] O
io_oeb[4] O
io_oeb[5] O
io_oeb[6] O
io_oeb[7] O
io_oeb[8] O
io_oeb[9] O
io_out[0] O
io_out[10] O
io_out[11] O
io_out[12] O
io_out[13] O
io_out[14] O
io_out[15] O
io_out[16] O
io_out[17] O
io_out[18] O
io_out[19] O
io_out[1] O
io_out[20] O
io_out[21] O
io_out[22] O
io_out[23] O
io_out[24] O
io_out[25] O
io_out[26] O
io_out[27] O
io_out[28] O
io_out[29] O
io_out[2] O
io_out[30] O
io_out[31] O
io_out[32] O
io_out[33] O
io_out[34] O
io_out[35] O
io_out[36] O
io_out[37] O
io_out[3] O
io_out[4] O
io_out[5] O
io_out[6] O
io_out[7] O
io_out[8] O
io_out[9] O
la_data_in[0] I
la_data_in[100] I
la_data_in[101] I
la_data_in[102] I
la_data_in[103] I
la_data_in[104] I
la_data_in[105] I
la_data_in[106] I
la_data_in[107] I
la_data_in[108] I
la_data_in[109] I
la_data_in[10] I
la_data_in[110] I
la_data_in[111] I
la_data_in[112] I
la_data_in[113] I
la_data_in[114] I
la_data_in[115] I
la_data_in[116] I
la_data_in[117] I
la_data_in[118] I
la_data_in[119] I
la_data_in[11] I
la_data_in[120] I
la_data_in[121] I
la_data_in[122] I
la_data_in[123] I
la_data_in[124] I
la_data_in[125] I
la_data_in[126] I
la_data_in[127] I
la_data_in[12] I
la_data_in[13] I
la_data_in[14] I
la_data_in[15] I
la_data_in[16] I
la_data_in[17] I
la_data_in[18] I
la_data_in[19] I
la_data_in[1] I
la_data_in[20] I
la_data_in[21] I
la_data_in[22] I
la_data_in[23] I
la_data_in[24] I
la_data_in[25] I
la_data_in[26] I
la_data_in[27] I
la_data_in[28] I
la_data_in[29] I
la_data_in[2] I
la_data_in[30] I
la_data_in[31] I
la_data_in[32] I
la_data_in[33] I
la_data_in[34] I
la_data_in[35] I
la_data_in[36] I
la_data_in[37] I
la_data_in[38] I
la_data_in[39] I
la_data_in[3] I
la_data_in[40] I
la_data_in[41] I
la_data_in[42] I
la_data_in[43] I
la_data_in[44] I
la_data_in[45] I
la_data_in[46] I
la_data_in[47] I
la_data_in[48] I
la_data_in[49] I
la_data_in[4] I
la_data_in[50] I
la_data_in[51] I
la_data_in[52] I
la_data_in[53] I
la_data_in[54] I
la_data_in[55] I
la_data_in[56] I
la_data_in[57] I
la_data_in[58] I
la_data_in[59] I
la_data_in[5] I
la_data_in[60] I
la_data_in[61] I
la_data_in[62] I
la_data_in[63] I
la_data_in[64] I
la_data_in[65] I
la_data_in[66] I
la_data_in[67] I
la_data_in[68] I
la_data_in[69] I
la_data_in[6] I
la_data_in[70] I
la_data_in[71] I
la_data_in[72] I
la_data_in[73] I
la_data_in[74] I
la_data_in[75] I
la_data_in[76] I
la_data_in[77] I
la_data_in[78] I
la_data_in[79] I
la_data_in[7] I
la_data_in[80] I
la_data_in[81] I
la_data_in[82] I
la_data_in[83] I
la_data_in[84] I
la_data_in[85] I
la_data_in[86] I
la_data_in[87] I
la_data_in[88] I
la_data_in[89] I
la_data_in[8] I
la_data_in[90] I
la_data_in[91] I
la_data_in[92] I
la_data_in[93] I
la_data_in[94] I
la_data_in[95] I
la_data_in[96] I
la_data_in[97] I
la_data_in[98] I
la_data_in[99] I
la_data_in[9] I
la_data_out[0] O
la_data_out[100] O
la_data_out[101] O
la_data_out[102] O
la_data_out[103] O
la_data_out[104] O
la_data_out[105] O
la_data_out[106] O
la_data_out[107] O
la_data_out[108] O
la_data_out[109] O
la_data_out[10] O
la_data_out[110] O
la_data_out[111] O
la_data_out[112] O
la_data_out[113] O
la_data_out[114] O
la_data_out[115] O
la_data_out[116] O
la_data_out[117] O
la_data_out[118] O
la_data_out[119] O
la_data_out[11] O
la_data_out[120] O
la_data_out[121] O
la_data_out[122] O
la_data_out[123] O
la_data_out[124] O
la_data_out[125] O
la_data_out[126] O
la_data_out[127] O
la_data_out[12] O
la_data_out[13] O
la_data_out[14] O
la_data_out[15] O
la_data_out[16] O
la_data_out[17] O
la_data_out[18] O
la_data_out[19] O
la_data_out[1] O
la_data_out[20] O
la_data_out[21] O
la_data_out[22] O
la_data_out[23] O
la_data_out[24] O
la_data_out[25] O
la_data_out[26] O
la_data_out[27] O
la_data_out[28] O
la_data_out[29] O
la_data_out[2] O
la_data_out[30] O
la_data_out[31] O
la_data_out[32] O
la_data_out[33] O
la_data_out[34] O
la_data_out[35] O
la_data_out[36] O
la_data_out[37] O
la_data_out[38] O
la_data_out[39] O
la_data_out[3] O
la_data_out[40] O
la_data_out[41] O
la_data_out[42] O
la_data_out[43] O
la_data_out[44] O
la_data_out[45] O
la_data_out[46] O
la_data_out[47] O
la_data_out[48] O
la_data_out[49] O
la_data_out[4] O
la_data_out[50] O
la_data_out[51] O
la_data_out[52] O
la_data_out[53] O
la_data_out[54] O
la_data_out[55] O
la_data_out[56] O
la_data_out[57] O
la_data_out[58] O
la_data_out[59] O
la_data_out[5] O
la_data_out[60] O
la_data_out[61] O
la_data_out[62] O
la_data_out[63] O
la_data_out[64] O
la_data_out[65] O
la_data_out[66] O
la_data_out[67] O
la_data_out[68] O
la_data_out[69] O
la_data_out[6] O
la_data_out[70] O
la_data_out[71] O
la_data_out[72] O
la_data_out[73] O
la_data_out[74] O
la_data_out[75] O
la_data_out[76] O
la_data_out[77] O
la_data_out[78] O
la_data_out[79] O
la_data_out[7] O
la_data_out[80] O
la_data_out[81] O
la_data_out[82] O
la_data_out[83] O
la_data_out[84] O
la_data_out[85] O
la_data_out[86] O
la_data_out[87] O
la_data_out[88] O
la_data_out[89] O
la_data_out[8] O
la_data_out[90] O
la_data_out[91] O
la_data_out[92] O
la_data_out[93] O
la_data_out[94] O
la_data_out[95] O
la_data_out[96] O
la_data_out[97] O
la_data_out[98] O
la_data_out[99] O
la_data_out[9] O
la_oenb[0] I
la_oenb[100] I
la_oenb[101] I
la_oenb[102] I
la_oenb[103] I
la_oenb[104] I
la_oenb[105] I
la_oenb[106] I
la_oenb[107] I
la_oenb[108] I
la_oenb[109] I
la_oenb[10] I
la_oenb[110] I
la_oenb[111] I
la_oenb[112] I
la_oenb[113] I
la_oenb[114] I
la_oenb[115] I
la_oenb[116] I
la_oenb[117] I
la_oenb[118] I
la_oenb[119] I
la_oenb[11] I
la_oenb[120] I
la_oenb[121] I
la_oenb[122] I
la_oenb[123] I
la_oenb[124] I
la_oenb[125] I
la_oenb[126] I
la_oenb[127] I
la_oenb[12] I
la_oenb[13] I
la_oenb[14] I
la_oenb[15] I
la_oenb[16] I
la_oenb[17] I
la_oenb[18] I
la_oenb[19] I
la_oenb[1] I
la_oenb[20] I
la_oenb[21] I
la_oenb[22] I
la_oenb[23] I
la_oenb[24] I
la_oenb[25] I
la_oenb[26] I
la_oenb[27] I
la_oenb[28] I
la_oenb[29] I
la_oenb[2] I
la_oenb[30] I
la_oenb[31] I
la_oenb[32] I
la_oenb[33] I
la_oenb[34] I
la_oenb[35] I
la_oenb[36] I
la_oenb[37] I
la_oenb[38] I
la_oenb[39] I
la_oenb[3] I
la_oenb[40] I
la_oenb[41] I
la_oenb[42] I
la_oenb[43] I
la_oenb[44] I
la_oenb[45] I
la_oenb[46] I
la_oenb[47] I
la_oenb[48] I
la_oenb[49] I
la_oenb[4] I
la_oenb[50] I
la_oenb[51] I
la_oenb[52] I
la_oenb[53] I
la_oenb[54] I
la_oenb[55] I
la_oenb[56] I
la_oenb[57] I
la_oenb[58] I
la_oenb[59] I
la_oenb[5] I
la_oenb[60] I
la_oenb[61] I
la_oenb[62] I
la_oenb[63] I
la_oenb[64] I
la_oenb[65] I
la_oenb[66] I
la_oenb[67] I
la_oenb[68] I
la_oenb[69] I
la_oenb[6] I
la_oenb[70] I
la_oenb[71] I
la_oenb[72] I
la_oenb[73] I
la_oenb[74] I
la_oenb[75] I
la_oenb[76] I
la_oenb[77] I
la_oenb[78] I
la_oenb[79] I
la_oenb[7] I
la_oenb[80] I
la_oenb[81] I
la_oenb[82] I
la_oenb[83] I
la_oenb[84] I
la_oenb[85] I
la_oenb[86] I
la_oenb[87] I
la_oenb[88] I
la_oenb[89] I
la_oenb[8] I
la_oenb[90] I
la_oenb[91] I
la_oenb[92] I
la_oenb[93] I
la_oenb[94] I
la_oenb[95] I
la_oenb[96] I
la_oenb[97] I
la_oenb[98] I
la_oenb[99] I
la_oenb[9] I
user_clock2 I
user_irq[0] O
user_irq[1] O
user_irq[2] O
wb_clk_i I
wb_rst_i I
wbs_ack_o O
wbs_adr_i[0] I
wbs_adr_i[10] I
wbs_adr_i[11] I
wbs_adr_i[12] I
wbs_adr_i[13] I
wbs_adr_i[14] I
wbs_adr_i[15] I
wbs_adr_i[16] I
wbs_adr_i[17] I
wbs_adr_i[18] I
wbs_adr_i[19] I
wbs_adr_i[1] I
wbs_adr_i[20] I
wbs_adr_i[21] I
wbs_adr_i[22] I
wbs_adr_i[23] I
wbs_adr_i[24] I
wbs_adr_i[25] I
wbs_adr_i[26] I
wbs_adr_i[27] I
wbs_adr_i[28] I
wbs_adr_i[29] I
wbs_adr_i[2] I
wbs_adr_i[30] I
wbs_adr_i[31] I
wbs_adr_i[3] I
wbs_adr_i[4] I
wbs_adr_i[5] I
wbs_adr_i[6] I
wbs_adr_i[7] I
wbs_adr_i[8] I
wbs_adr_i[9] I
wbs_cyc_i I
wbs_dat_i[0] I
wbs_dat_i[10] I
wbs_dat_i[11] I
wbs_dat_i[12] I
wbs_dat_i[13] I
wbs_dat_i[14] I
wbs_dat_i[15] I
wbs_dat_i[16] I
wbs_dat_i[17] I
wbs_dat_i[18] I
wbs_dat_i[19] I
wbs_dat_i[1] I
wbs_dat_i[20] I
wbs_dat_i[21] I
wbs_dat_i[22] I
wbs_dat_i[23] I
wbs_dat_i[24] I
wbs_dat_i[25] I
wbs_dat_i[26] I
wbs_dat_i[27] I
wbs_dat_i[28] I
wbs_dat_i[29] I
wbs_dat_i[2] I
wbs_dat_i[30] I
wbs_dat_i[31] I
wbs_dat_i[3] I
wbs_dat_i[4] I
wbs_dat_i[5] I
wbs_dat_i[6] I
wbs_dat_i[7] I
wbs_dat_i[8] I
wbs_dat_i[9] I
wbs_dat_o[0] O
wbs_dat_o[10] O
wbs_dat_o[11] O
wbs_dat_o[12] O
wbs_dat_o[13] O
wbs_dat_o[14] O
wbs_dat_o[15] O
wbs_dat_o[16] O
wbs_dat_o[17] O
wbs_dat_o[18] O
wbs_dat_o[19] O
wbs_dat_o[1] O
wbs_dat_o[20] O
wbs_dat_o[21] O
wbs_dat_o[22] O
wbs_dat_o[23] O
wbs_dat_o[24] O
wbs_dat_o[25] O
wbs_dat_o[26] O
wbs_dat_o[27] O
wbs_dat_o[28] O
wbs_dat_o[29] O
wbs_dat_o[2] O
wbs_dat_o[30] O
wbs_dat_o[31] O
wbs_dat_o[3] O
wbs_dat_o[4] O
wbs_dat_o[5] O
wbs_dat_o[6] O
wbs_dat_o[7] O
wbs_dat_o[8] O
wbs_dat_o[9] O
wbs_sel_i[0] I
wbs_sel_i[1] I
wbs_sel_i[2] I
wbs_sel_i[3] I
wbs_stb_i I
wbs_we_i I

*D_NET *30 0.339146
*CONN
*P io_in[0] I
*I *427:multiplicand[0] I *D booth8
*CAP
1 io_in[0] 0.00581714
2 *427:multiplicand[0] 0.000603468
3 *30:13 0.121888
4 *30:11 0.121284
5 *30:9 0.00476153
6 *30:7 0.0105787
7 *30:7 *427:multiplier[6] 0
8 *30:13 *65:13 0.0742125
*RES
1 io_in[0] *30:7 27.8203 
2 *30:7 *30:9 109.309 
3 *30:9 *30:11 8 
4 *30:11 *30:13 509.761 
5 *30:13 *427:multiplicand[0] 21.8579 
*END

*D_NET *31 0.854737
*CONN
*P io_in[10] I
*I *427:multiplier[2] I *D booth8
*CAP
1 io_in[10] 0.000975876
2 *427:multiplier[2] 0.149263
3 *31:11 0.149263
4 *31:9 0.0625499
5 *31:7 0.0635258
6 *427:multiplier[2] wbs_dat_o[14] 0.00050139
7 *427:multiplier[2] wbs_dat_o[15] 0.000514942
8 *427:multiplier[2] *68:244 0.000514942
9 *427:multiplier[2] *68:254 0.000514942
10 *427:multiplier[2] *68:264 0.00050139
11 *427:multiplier[2] *68:274 0.000514942
12 *427:multiplier[2] *68:284 0.00050139
13 *427:multiplier[2] *68:294 0.000514942
14 *427:multiplier[2] *68:304 0.00050139
15 *427:multiplier[2] *68:314 0.000514942
16 *427:multiplier[2] *68:592 0.000244076
17 *427:multiplier[2] *68:594 0.000361242
18 *427:multiplier[2] *68:600 0.000410062
19 *427:multiplier[2] *68:604 0.000447182
20 *427:multiplier[2] *68:606 0.000514942
21 *427:multiplier[2] *68:608 0.00050139
22 *427:multiplier[2] *68:610 0.000514942
23 *427:multiplier[2] *68:612 0.00050139
24 *427:multiplier[2] *68:614 0.000514942
25 *427:multiplier[2] *68:616 0.000514942
26 *427:multiplier[2] *68:618 0.000487808
27 *427:multiplier[2] *68:620 0.000514942
28 *427:multiplier[2] *68:622 0.00050139
29 *427:multiplier[2] *68:624 0.000514942
30 *427:multiplier[2] *68:626 0.00050139
31 *427:multiplier[2] *68:628 0.000514942
32 *427:multiplier[2] *68:630 0.00050139
33 *427:multiplier[2] *68:632 0.000514942
34 *427:multiplier[2] *68:634 0.000514942
35 *427:multiplier[2] *68:636 0.00050139
36 *427:multiplier[2] *68:638 0.000514942
37 *427:multiplier[2] *68:640 0.00050139
38 *427:multiplier[2] *68:642 0.000514942
39 *427:multiplier[2] *68:644 0.00050139
40 *427:multiplier[2] *68:646 0.000514942
41 *427:multiplier[2] *68:648 0.00050139
42 *427:multiplier[2] *68:650 0.000514942
43 *427:multiplier[2] *68:652 0.00050139
44 *427:multiplier[2] *68:654 0.000514942
45 *427:multiplier[2] *68:656 0.000514942
46 *427:multiplier[2] *68:658 0.00050139
47 *427:multiplier[2] *68:660 0.000514942
48 *427:multiplier[2] *68:662 0.00050139
49 *427:multiplier[2] *68:664 0.000514942
50 *427:multiplier[2] *68:666 0.00050139
51 *427:multiplier[2] *68:668 0.000514942
52 *427:multiplier[2] *68:670 0.00050139
53 *427:multiplier[2] *68:672 0.000514942
54 *427:multiplier[2] *68:674 0.000514942
55 *427:multiplier[2] *68:676 0.00050139
56 *427:multiplier[2] *68:678 0.000514942
57 *427:multiplier[2] *68:680 0.00050139
58 *427:multiplier[2] *68:682 0.000514942
59 *427:multiplier[2] *68:684 0.00050139
60 *427:multiplier[2] *68:686 0.000514942
61 *427:multiplier[2] *68:688 0.00050139
62 *427:multiplier[2] *68:690 0.000514942
63 *427:multiplier[2] *68:692 0.00050139
64 *427:multiplier[2] *68:694 0.000514942
65 *427:multiplier[2] *68:696 0.000514942
66 *427:multiplier[2] *68:698 0.00050139
67 *427:multiplier[2] *68:700 0.000514942
68 *427:multiplier[2] *68:702 0.00050139
69 *427:multiplier[2] *68:704 0.000514942
70 *427:multiplier[2] *68:706 0.00050139
71 *427:multiplier[2] *68:708 0.000514942
72 *427:multiplier[2] *68:710 0.00050139
73 *427:multiplier[2] *68:712 0.000514942
74 *427:multiplier[2] *68:714 0.000514942
75 *427:multiplier[2] *68:716 0.00050139
76 *427:multiplier[2] *68:718 0.000514942
77 *427:multiplier[2] *68:720 0.00050139
78 *427:multiplier[2] *68:722 0.000514942
79 *427:multiplier[2] *68:724 0.00050139
80 *427:multiplier[2] *68:726 0.000514942
81 *427:multiplier[2] *68:728 0.00050139
82 *427:multiplier[2] *68:730 0.000514942
83 *427:multiplier[2] *68:732 0.00050139
84 *427:multiplier[2] *68:734 0.000514942
85 *427:multiplier[2] *68:736 0.000514942
86 *427:multiplier[2] *68:738 0.00050139
87 *427:multiplier[2] *68:740 0.000514942
88 *427:multiplier[2] *68:742 0.00050139
89 *427:multiplier[2] *68:744 0.000514942
90 *427:multiplier[2] *68:746 0.00050139
91 *427:multiplier[2] *68:748 0.000514942
92 *427:multiplier[2] *68:750 0.00050139
93 *427:multiplier[2] *68:752 0.000514942
94 *427:multiplier[2] *68:754 0.000514942
95 *427:multiplier[2] *68:756 0.00050139
96 *427:multiplier[2] *68:758 0.000514942
97 *427:multiplier[2] *68:760 0.00050139
98 *427:multiplier[2] *68:762 0.000514942
99 *427:multiplier[2] *68:764 0.00050139
100 *427:multiplier[2] *68:766 0.000514942
101 *427:multiplier[2] *68:768 0.00050139
102 *427:multiplier[2] *68:770 0.000514942
103 *427:multiplier[2] *68:772 0.000514942
104 *427:multiplier[2] *68:774 0.00050139
105 *427:multiplier[2] *68:776 0.000514942
106 *427:multiplier[2] *68:778 0.00050139
107 *427:multiplier[2] *68:780 0.000514942
108 *427:multiplier[2] *68:782 0.00050139
109 *427:multiplier[2] *68:784 0.000514942
110 *427:multiplier[2] *68:786 0.00050139
111 *427:multiplier[2] *68:788 0.000514942
112 *427:multiplier[2] *68:790 0.00050139
113 *427:multiplier[2] *68:792 0.000514942
114 *427:multiplier[2] *68:794 0.000514942
115 *427:multiplier[2] *68:796 0.00050139
116 *427:multiplier[2] *68:798 0.000514942
117 *427:multiplier[2] *68:800 0.00050139
118 *427:multiplier[2] *68:802 0.000514942
119 *427:multiplier[2] *68:804 0.00050139
120 *427:multiplier[2] *68:806 0.000514942
121 *427:multiplier[2] *68:808 0.00050139
122 *427:multiplier[2] *68:810 0.000514942
123 *427:multiplier[2] *68:812 0.000514942
124 *427:multiplier[2] *68:814 0.00050139
125 *427:multiplier[2] *68:816 0.000514942
126 *427:multiplier[2] *68:818 0.00050139
127 *427:multiplier[2] *68:820 0.000514942
128 *427:multiplier[2] *68:822 0.00050139
129 *427:multiplier[2] *68:824 0.000514942
130 *427:multiplier[2] *68:826 0.00050139
131 *427:multiplier[2] *68:828 0.000514942
132 *427:multiplier[2] *68:830 0.00050139
133 *427:multiplier[2] *68:832 0.000514942
134 *427:multiplier[2] *68:834 0.000514942
135 *427:multiplier[2] *68:836 0.00050139
136 *427:multiplier[2] *68:838 0.000514942
137 *427:multiplier[2] *68:840 0.00050139
138 *427:multiplier[2] *68:842 0.000514942
139 *427:multiplier[2] *68:844 0.00050139
140 *427:multiplier[2] *68:846 0.000514942
141 *427:multiplier[2] *68:848 0.00050139
142 *427:multiplier[2] *68:850 0.000514942
143 *427:multiplier[2] *68:852 0.000514942
144 *427:multiplier[2] *68:854 0.000325215
145 *427:multiplier[2] *68:856 0.000514942
146 *427:multiplier[2] *68:858 0.00050139
147 *427:multiplier[2] *68:860 0.000514942
148 *427:multiplier[2] *68:862 0.00050139
149 *427:multiplier[2] *68:864 0.000514942
150 *427:multiplier[2] *68:866 0.000514942
151 *427:multiplier[2] *68:868 0.00050139
152 *427:multiplier[2] *68:870 0.000514942
153 *427:multiplier[2] *68:872 0.00050139
154 *427:multiplier[2] *68:874 0.000514942
155 *427:multiplier[2] *68:876 0.00050139
156 *427:multiplier[2] *68:878 0.000514942
157 *427:multiplier[2] *68:880 0.00050139
158 *427:multiplier[2] *68:882 0.000514942
159 *427:multiplier[2] *68:884 0.00050139
160 *31:9 io_out[0] 0.00211487
161 *31:9 *33:9 0.170819
162 *31:9 *33:15 0.000552096
163 *31:9 *34:9 0.00185693
164 *31:9 *35:9 0.00937843
165 *31:9 *35:19 0.000449503
166 *31:9 *52:9 0.000161245
167 *31:9 *64:9 0.0910177
168 *31:9 *65:9 0.0228631
169 *31:9 *68:524 0.00125132
170 *31:9 *68:526 0.00250263
171 *31:9 *68:528 0.00250263
172 *31:9 *68:530 0.00249618
173 *31:9 *68:532 0.000625656
174 *31:9 *68:544 0.000555558
175 *31:9 *72:17 0.0334775
176 *31:9 *75:25 0.0012101
177 *31:9 *80:17 0.000929426
178 *31:9 *85:17 0.00679051
*RES
1 io_in[10] *31:7 10.9475 
2 *31:7 *31:9 424.775 
3 *31:9 *31:11 8 
4 *31:11 *427:multiplier[2] 511.622 
*END

*D_NET *32 0.6489
*CONN
*P io_in[11] I
*I *427:multiplier[3] I *D booth8
*CAP
1 io_in[11] 0.15638
2 *427:multiplier[3] 0.00292643
3 *32:9 0.0859764
4 *32:7 0.08305
5 *32:5 0.15638
6 *427:multiplier[3] *78:9 0.000696559
7 *32:9 *86:9 0.16349
*RES
1 io_in[11] *32:5 535.707 
2 *32:5 *32:7 8 
3 *32:7 *32:9 2591.21 
4 *32:9 *427:multiplier[3] 33.8485 
*END

*D_NET *33 0.840426
*CONN
*P io_in[12] I
*I *427:multiplier[4] I *D booth8
*CAP
1 io_in[12] 0.0010387
2 *427:multiplier[4] 0.149173
3 *33:15 0.150883
4 *33:9 0.107806
5 *33:7 0.107134
6 *33:9 *34:9 0.0397169
7 *33:9 *35:9 0.00437316
8 *33:9 *41:9 0.00170282
9 *33:9 *52:9 0.00252115
10 *33:9 *68:520 0.00125132
11 *33:9 *68:522 0.00250263
12 *33:9 *68:524 0.000619206
13 *33:9 *72:17 0.00229305
14 *33:9 *75:25 0.0815392
15 *33:9 *80:17 0.0127441
16 *33:15 io_out[0] 0.00212013
17 *33:15 *35:19 0.000546423
18 *33:15 *52:9 0.000578199
19 *33:15 *80:17 0.000511463
20 *31:9 *33:9 0.170819
21 *31:9 *33:15 0.000552096
*RES
1 io_in[12] *33:7 11.1192 
2 *33:7 *33:9 502.294 
3 *33:9 *33:15 15.9371 
4 *33:15 *427:multiplier[4] 511.278 
*END

*D_NET *34 1.05008
*CONN
*P io_in[13] I
*I *427:multiplier[5] I *D booth8
*CAP
1 io_in[13] 0.000965428
2 *427:multiplier[5] 0.000618092
3 *34:13 0.104296
4 *34:11 0.103678
5 *34:9 0.0468566
6 *34:7 0.047822
7 *34:9 *65:9 0.110353
8 *34:9 *68:518 0
9 *34:9 *68:520 0
10 *34:9 *68:522 0
11 *34:9 *72:17 0.0540541
12 *34:9 *75:25 0.251351
13 *34:9 *80:17 6.15606e-05
14 *34:13 *41:13 0.000129589
15 *34:13 *72:13 0.278731
16 *34:13 *75:17 0.00556725
17 *34:13 *85:13 0.000702352
18 *34:13 *352:11 0.00331668
19 *31:9 *34:9 0.00185693
20 *33:9 *34:9 0.0397169
*RES
1 io_in[13] *34:7 10.9904 
2 *34:7 *34:9 3195.49 
3 *34:9 *34:11 8 
4 *34:11 *34:13 530.54 
5 *34:13 *427:multiplier[5] 21.8371 
*END

*D_NET *35 0.792564
*CONN
*P io_in[14] I
*I *427:multiplier[6] I *D booth8
*CAP
1 io_in[14] 0.000802231
2 *427:multiplier[6] 0.152262
3 *35:19 0.156023
4 *35:9 0.0955505
5 *35:7 0.0925915
6 *35:9 *64:9 0.0128817
7 *35:9 *68:516 0.0108876
8 *35:9 *68:518 0.0216425
9 *35:9 *68:520 0.0216962
10 *35:9 *68:522 0.0216965
11 *35:9 *68:524 0.0216413
12 *35:9 *68:526 0.0217003
13 *35:9 *68:528 0.0216972
14 *35:9 *68:530 0.0216456
15 *35:9 *68:532 0.0162583
16 *35:9 *68:534 0.0162583
17 *35:9 *68:536 0.0162579
18 *35:9 *68:538 0.0162579
19 *35:9 *68:540 0.0162611
20 *35:9 *68:542 0.0162626
21 *35:9 *68:544 0.00511278
22 *35:19 io_out[0] 0
23 *35:19 *41:9 0.00184983
24 *35:19 *52:9 0.000580101
25 *30:7 *427:multiplier[6] 0
26 *31:9 *35:9 0.00937843
27 *31:9 *35:19 0.000449503
28 *33:9 *35:9 0.00437316
29 *33:15 *35:19 0.000546423
*RES
1 io_in[14] *35:7 10.4752 
2 *35:7 *35:9 3366.63 
3 *35:9 *35:19 37.2029 
4 *35:19 *427:multiplier[6] 510.935 
*END

*D_NET *36 0.642122
*CONN
*P io_in[15] I
*I *427:multiplier[7] I *D booth8
*CAP
1 io_in[15] 0.000752298
2 *427:multiplier[7] 7.44601e-05
3 *36:13 0.150818
4 *36:11 0.150744
5 *36:9 0.148659
6 *36:7 0.149411
7 *36:9 *68:12 0.0113781
8 *36:9 *68:38 0.00671092
9 *36:9 *68:494 0.00238379
10 *36:9 *68:504 0.0070478
11 *36:9 *69:188 0.00670781
12 *36:9 *69:200 0.000438499
13 *36:9 *69:224 0.00671092
14 *36:9 *69:236 0.000285977
*RES
1 io_in[15] *36:7 24.9754 
2 *36:7 *36:9 498.512 
3 *36:9 *36:11 8 
4 *36:11 *36:13 3494.11 
5 *36:13 *427:multiplier[7] 1.86429 
*END

*D_NET *37 0.566656
*CONN
*P io_in[16] I
*I *427:start I *D booth8
*CAP
1 io_in[16] 0.154508
2 *427:start 0.128821
3 *37:7 0.128821
4 *37:5 0.154508
*RES
1 io_in[16] *37:5 3578.55 
2 *37:5 *37:7 8 
3 *37:7 *427:start 431.723 
*END

*D_NET *41 0.688879
*CONN
*P io_in[1] I
*I *427:multiplicand[1] I *D booth8
*CAP
1 io_in[1] 0.00129835
2 *427:multiplicand[1] 0.000561063
3 *41:13 0.0489648
4 *41:11 0.0484037
5 *41:9 0.00711823
6 *41:7 0.00841659
7 *427:multiplicand[1] wbs_dat_o[3] 0
8 *41:9 *52:9 0.00960318
9 *41:13 *75:17 0.000349085
10 *41:13 *80:13 0.280731
11 *41:13 *85:13 0.27975
12 *33:9 *41:9 0.00170282
13 *34:13 *41:13 0.000129589
14 *35:19 *41:9 0.00184983
*RES
1 io_in[1] *41:7 11.5056 
2 *41:7 *41:9 235.376 
3 *41:9 *41:11 8 
4 *41:11 *41:13 519.12 
5 *41:13 *427:multiplicand[1] 19.8693 
*END

*D_NET *52 0.689685
*CONN
*P io_in[2] I
*I *427:multiplicand[2] I *D booth8
*CAP
1 io_in[2] 0.00123786
2 *427:multiplicand[2] 0.000476643
3 *52:13 0.103098
4 *52:11 0.102621
5 *52:9 0.00997884
6 *52:7 0.0112167
7 *427:multiplicand[2] wbs_dat_o[2] 0
8 *52:9 *80:17 0.0181088
9 *52:13 *75:17 0.000383792
10 *52:13 *75:21 0.0473574
11 *52:13 *76:17 0.00530653
12 *52:13 *76:21 0.094316
13 *52:13 *80:13 0.282139
14 *31:9 *52:9 0.000161245
15 *33:9 *52:9 0.00252115
16 *33:15 *52:9 0.000578199
17 *35:19 *52:9 0.000580101
18 *41:9 *52:9 0.00960318
*RES
1 io_in[2] *52:7 11.3339 
2 *52:7 *52:9 440.324 
3 *52:9 *52:11 8 
4 *52:11 *52:13 524.1 
5 *52:13 *427:multiplicand[2] 18.4607 
*END

*D_NET *61 0.348225
*CONN
*P io_in[3] I
*I *427:multiplicand[3] I *D booth8
*CAP
1 io_in[3] 0.151574
2 *427:multiplicand[3] 7.44601e-05
3 *61:9 0.0225381
4 *61:7 0.0224637
5 *61:5 0.151574
*RES
1 io_in[3] *61:5 518.963 
2 *61:5 *61:7 8 
3 *61:7 *61:9 519.908 
4 *61:9 *427:multiplicand[3] 1.86429 
*END

*D_NET *62 0.425648
*CONN
*P io_in[4] I
*I *427:multiplicand[4] I *D booth8
*CAP
1 io_in[4] 0.156837
2 *427:multiplicand[4] 0.00353747
3 *62:9 0.0244168
4 *62:7 0.0208793
5 *62:5 0.156837
6 *427:multiplicand[4] *70:11 9.75158e-06
7 *427:multiplicand[4] *78:9 0.00316638
8 *62:9 *63:9 0.00046839
9 *62:9 *81:9 0.0594948
*RES
1 io_in[4] *62:5 536.137 
2 *62:5 *62:7 8 
3 *62:7 *62:9 766.408 
4 *62:9 *427:multiplicand[4] 34.4197 
*END

*D_NET *63 0.487688
*CONN
*P io_in[5] I
*I *427:multiplicand[5] I *D booth8
*CAP
1 io_in[5] 0.156742
2 *427:multiplicand[5] 0.000828472
3 *63:9 0.0171334
4 *63:7 0.0163049
5 *63:5 0.156742
6 *63:9 *67:9 0.0739939
7 *63:9 *81:9 0.0641279
8 *63:9 *86:9 0.0013472
9 *62:9 *63:9 0.00046839
*RES
1 io_in[5] *63:5 535.965 
2 *63:5 *63:7 8 
3 *63:7 *63:9 986.145 
4 *63:9 *427:multiplicand[5] 10.5611 
*END

*D_NET *64 0.525655
*CONN
*P io_in[6] I
*I *427:multiplicand[6] I *D booth8
*CAP
1 io_in[6] 0.000932643
2 *427:multiplicand[6] 0.152767
3 *64:11 0.152767
4 *64:9 0.0414956
5 *64:7 0.0424282
6 *64:9 *68:532 0.000831716
7 *64:9 *68:534 0.00251248
8 *64:9 *68:536 0.00251248
9 *64:9 *68:538 0.00251248
10 *64:9 *68:540 0.00251248
11 *64:9 *68:542 0.00251248
12 *64:9 *68:544 0.00107187
13 *64:9 *85:17 0.0168987
14 *31:9 *64:9 0.0910177
15 *35:9 *64:9 0.0128817
*RES
1 io_in[6] *64:7 10.7757 
2 *64:7 *64:9 214.954 
3 *64:9 *64:11 8 
4 *64:11 *427:multiplicand[6] 511.793 
*END

*D_NET *65 0.596017
*CONN
*P io_in[7] I
*I *427:multiplicand[7] I *D booth8
*CAP
1 io_in[7] 0.00097958
2 *427:multiplicand[7] 0.000757923
3 *65:13 0.122399
4 *65:11 0.121641
5 *65:9 0.0157405
6 *65:7 0.0167201
7 *65:9 *72:17 0.11035
8 *30:13 *65:13 0.0742125
9 *31:9 *65:9 0.0228631
10 *34:9 *65:9 0.110353
*RES
1 io_in[7] *65:7 10.9045 
2 *65:7 *65:9 1400.97 
3 *65:9 *65:11 8 
4 *65:11 *65:13 511.564 
5 *65:13 *427:multiplicand[7] 25.1514 
*END

*D_NET *66 0.458289
*CONN
*P io_in[8] I
*I *427:multiplier[0] I *D booth8
*CAP
1 io_in[8] 0.156148
2 *427:multiplier[0] 7.44601e-05
3 *66:9 0.0729959
4 *66:7 0.0729214
5 *66:5 0.156148
*RES
1 io_in[8] *66:5 523.171 
2 *66:5 *66:7 8 
3 *66:7 *66:9 1689.73 
4 *66:9 *427:multiplier[0] 1.86429 
*END

*D_NET *67 0.6369
*CONN
*P io_in[9] I
*I *427:multiplier[1] I *D booth8
*CAP
1 io_in[9] 0.160063
2 *427:multiplier[1] 0.000788133
3 *67:9 0.0442405
4 *67:7 0.0434524
5 *67:5 0.160063
6 *67:9 *86:9 0.154298
7 *63:9 *67:9 0.0739939
*RES
1 io_in[9] *67:5 535.879 
2 *67:5 *67:7 8 
3 *67:7 *67:9 1982.71 
4 *67:9 *427:multiplier[1] 10.4752 
*END

*D_NET *68 2.06363
*CONN
*P io_oeb[14] O
*P io_oeb[13] O
*P io_oeb[12] O
*P io_oeb[11] O
*P io_oeb[10] O
*P io_oeb[9] O
*P io_oeb[8] O
*P io_oeb[7] O
*P io_oeb[6] O
*P io_oeb[5] O
*P io_oeb[4] O
*P io_oeb[3] O
*P io_oeb[2] O
*P io_oeb[1] O
*P io_oeb[0] O
*P la_data_out[127] O
*P la_data_out[126] O
*P la_data_out[125] O
*P la_data_out[124] O
*P la_data_out[123] O
*P la_data_out[122] O
*P la_data_out[121] O
*P la_data_out[120] O
*P la_data_out[119] O
*P la_data_out[118] O
*P la_data_out[117] O
*P la_data_out[116] O
*P la_data_out[115] O
*P la_data_out[114] O
*P la_data_out[113] O
*P la_data_out[112] O
*P la_data_out[111] O
*P la_data_out[110] O
*P la_data_out[109] O
*P la_data_out[108] O
*P la_data_out[107] O
*P la_data_out[106] O
*P la_data_out[105] O
*P la_data_out[104] O
*P la_data_out[103] O
*P la_data_out[102] O
*P la_data_out[101] O
*P la_data_out[100] O
*P la_data_out[99] O
*P la_data_out[98] O
*P la_data_out[97] O
*P la_data_out[96] O
*P la_data_out[95] O
*P la_data_out[94] O
*P la_data_out[93] O
*P la_data_out[92] O
*P la_data_out[91] O
*P la_data_out[90] O
*P la_data_out[89] O
*P la_data_out[88] O
*P la_data_out[87] O
*P la_data_out[86] O
*P la_data_out[85] O
*P la_data_out[84] O
*P la_data_out[83] O
*P la_data_out[82] O
*P la_data_out[81] O
*P la_data_out[80] O
*P la_data_out[79] O
*P la_data_out[78] O
*P la_data_out[77] O
*P la_data_out[76] O
*P la_data_out[75] O
*P la_data_out[74] O
*P la_data_out[73] O
*P la_data_out[72] O
*P la_data_out[71] O
*P la_data_out[70] O
*P la_data_out[69] O
*P la_data_out[68] O
*P la_data_out[67] O
*P la_data_out[66] O
*P la_data_out[65] O
*P la_data_out[64] O
*P la_data_out[63] O
*P la_data_out[62] O
*P la_data_out[61] O
*P la_data_out[60] O
*P la_data_out[59] O
*P la_data_out[58] O
*P la_data_out[57] O
*P la_data_out[56] O
*P la_data_out[55] O
*P la_data_out[54] O
*P la_data_out[53] O
*P la_data_out[52] O
*P la_data_out[51] O
*P la_data_out[50] O
*P la_data_out[49] O
*P la_data_out[48] O
*P la_data_out[47] O
*P la_data_out[46] O
*P la_data_out[45] O
*P la_data_out[44] O
*P la_data_out[43] O
*P la_data_out[42] O
*P la_data_out[41] O
*P la_data_out[40] O
*P la_data_out[39] O
*P la_data_out[38] O
*P la_data_out[37] O
*P la_data_out[36] O
*P la_data_out[35] O
*P la_data_out[34] O
*P la_data_out[33] O
*P la_data_out[32] O
*P la_data_out[31] O
*P la_data_out[30] O
*P la_data_out[29] O
*P la_data_out[28] O
*P la_data_out[27] O
*P la_data_out[26] O
*P la_data_out[25] O
*P la_data_out[24] O
*P la_data_out[23] O
*P la_data_out[22] O
*P la_data_out[21] O
*P la_data_out[20] O
*P la_data_out[19] O
*P la_data_out[18] O
*P la_data_out[17] O
*P la_data_out[16] O
*P la_data_out[15] O
*P la_data_out[14] O
*P la_data_out[13] O
*P la_data_out[12] O
*P la_data_out[11] O
*P la_data_out[10] O
*P la_data_out[9] O
*P la_data_out[8] O
*P la_data_out[7] O
*P la_data_out[6] O
*P la_data_out[5] O
*P la_data_out[4] O
*P la_data_out[3] O
*P la_data_out[2] O
*P la_data_out[1] O
*P la_data_out[0] O
*P wbs_dat_o[31] O
*P wbs_dat_o[30] O
*P wbs_dat_o[29] O
*P wbs_dat_o[28] O
*P wbs_dat_o[27] O
*P wbs_dat_o[26] O
*P wbs_dat_o[25] O
*P wbs_dat_o[24] O
*P wbs_dat_o[23] O
*P wbs_dat_o[22] O
*P wbs_dat_o[21] O
*P wbs_dat_o[20] O
*P wbs_dat_o[19] O
*P wbs_dat_o[18] O
*P wbs_dat_o[17] O
*P wbs_dat_o[16] O
*P wbs_dat_o[15] O
*P user_irq[1] O
*P user_irq[2] O
*P user_irq[0] O
*P io_oeb[15] O
*P io_oeb[16] O
*P io_out[17] O
*P io_out[18] O
*P io_out[19] O
*P io_out[20] O
*P io_out[21] O
*P io_out[22] O
*P io_out[23] O
*P io_out[24] O
*P io_out[26] O
*P io_out[27] O
*P io_out[28] O
*P io_out[29] O
*P io_out[30] O
*P io_out[31] O
*P io_out[32] O
*P io_out[33] O
*P io_out[34] O
*P io_out[35] O
*P io_out[36] O
*P wbs_dat_o[14] O
*P wbs_dat_o[13] O
*P wbs_dat_o[12] O
*P wbs_dat_o[11] O
*P wbs_dat_o[10] O
*P wbs_dat_o[9] O
*P wbs_dat_o[8] O
*P wbs_dat_o[7] O
*P wbs_dat_o[6] O
*P wbs_dat_o[5] O
*P wbs_dat_o[4] O
*P wbs_dat_o[3] O
*P wbs_dat_o[2] O
*P wbs_dat_o[1] O
*P wbs_dat_o[0] O
*P wbs_ack_o O
*P io_out[37] O
*P io_out[25] O
*I *426:LO O *D sky130_fd_sc_hd__conb_1
*CAP
1 io_oeb[14] 0.000824606
2 io_oeb[13] 0.000839096
3 io_oeb[12] 0.000839096
4 io_oeb[11] 0.000839096
5 io_oeb[10] 0.000839096
6 io_oeb[9] 0.000839096
7 io_oeb[8] 0.000828996
8 io_oeb[7] 0.000839096
9 io_oeb[6] 0.000839096
10 io_oeb[5] 0.000839096
11 io_oeb[4] 0.000839096
12 io_oeb[3] 0.000839096
13 io_oeb[2] 0.000839096
14 io_oeb[1] 0.000839096
15 io_oeb[0] 0.000839096
16 la_data_out[127] 0.000794479
17 la_data_out[126] 0.000794479
18 la_data_out[125] 0.000727373
19 la_data_out[124] 0.000650307
20 la_data_out[123] 0.000650307
21 la_data_out[122] 0.000650307
22 la_data_out[121] 0.000650307
23 la_data_out[120] 0.000650307
24 la_data_out[119] 0.000655698
25 la_data_out[118] 0.000655698
26 la_data_out[117] 0.000666081
27 la_data_out[116] 0.000660416
28 la_data_out[115] 0.000660416
29 la_data_out[114] 0.000660416
30 la_data_out[113] 0.000660416
31 la_data_out[112] 0.000666081
32 la_data_out[111] 0.000666081
33 la_data_out[110] 0.000666081
34 la_data_out[109] 0.000666081
35 la_data_out[108] 0.000666081
36 la_data_out[107] 0.000666081
37 la_data_out[106] 0.000660416
38 la_data_out[105] 0.000660416
39 la_data_out[104] 0.000666081
40 la_data_out[103] 0.000666081
41 la_data_out[102] 0.000666081
42 la_data_out[101] 0.000666081
43 la_data_out[100] 0.000660416
44 la_data_out[99] 0.000660416
45 la_data_out[98] 0.000660416
46 la_data_out[97] 0.000660416
47 la_data_out[96] 0.000660416
48 la_data_out[95] 0.000660416
49 la_data_out[94] 0.000666081
50 la_data_out[93] 0.000660416
51 la_data_out[92] 0.000660416
52 la_data_out[91] 0.000660416
53 la_data_out[90] 0.000660416
54 la_data_out[89] 0.000660416
55 la_data_out[88] 0.000660416
56 la_data_out[87] 0.000660416
57 la_data_out[86] 0.000660416
58 la_data_out[85] 0.000660416
59 la_data_out[84] 0.000660416
60 la_data_out[83] 0.000660416
61 la_data_out[82] 0.000660416
62 la_data_out[81] 0.000660416
63 la_data_out[80] 0.000660416
64 la_data_out[79] 0.000660416
65 la_data_out[78] 0.000660416
66 la_data_out[77] 0.000660416
67 la_data_out[76] 0.000660416
68 la_data_out[75] 0.000660416
69 la_data_out[74] 0.000660416
70 la_data_out[73] 0.000660416
71 la_data_out[72] 0.000660416
72 la_data_out[71] 0.000660416
73 la_data_out[70] 0.000660416
74 la_data_out[69] 0.000660416
75 la_data_out[68] 0.000660416
76 la_data_out[67] 0.000660416
77 la_data_out[66] 0.000660416
78 la_data_out[65] 0.000660416
79 la_data_out[64] 0.000660416
80 la_data_out[63] 0.000660416
81 la_data_out[62] 0.000660416
82 la_data_out[61] 0.000660416
83 la_data_out[60] 0.000660416
84 la_data_out[59] 0.000660416
85 la_data_out[58] 0.000660416
86 la_data_out[57] 0.000660416
87 la_data_out[56] 0.000660416
88 la_data_out[55] 0.000660416
89 la_data_out[54] 0.000660416
90 la_data_out[53] 0.000660416
91 la_data_out[52] 0.000660416
92 la_data_out[51] 0.000660416
93 la_data_out[50] 0.000660416
94 la_data_out[49] 0.000660416
95 la_data_out[48] 0.000666081
96 la_data_out[47] 0.000666081
97 la_data_out[46] 0.000666081
98 la_data_out[45] 0.000660416
99 la_data_out[44] 0.000660416
100 la_data_out[43] 0.000660416
101 la_data_out[42] 0.000666081
102 la_data_out[41] 0.000666081
103 la_data_out[40] 0.000666081
104 la_data_out[39] 0.000666081
105 la_data_out[38] 0.000666081
106 la_data_out[37] 0.000660416
107 la_data_out[36] 0.000660416
108 la_data_out[35] 0.000660416
109 la_data_out[34] 0.000660416
110 la_data_out[33] 0.000666081
111 la_data_out[32] 0.000666081
112 la_data_out[31] 0.000666081
113 la_data_out[30] 0.000660416
114 la_data_out[29] 0.000660416
115 la_data_out[28] 0.000660416
116 la_data_out[27] 0.000660416
117 la_data_out[26] 0.000660416
118 la_data_out[25] 0.000660416
119 la_data_out[24] 0.000660416
120 la_data_out[23] 0.000660416
121 la_data_out[22] 0.000660416
122 la_data_out[21] 0.000660416
123 la_data_out[20] 0.000660416
124 la_data_out[19] 0.000660416
125 la_data_out[18] 0.000660416
126 la_data_out[17] 0.000660416
127 la_data_out[16] 0.000660416
128 la_data_out[15] 0.000660416
129 la_data_out[14] 0.000660416
130 la_data_out[13] 0.000660416
131 la_data_out[12] 0.000660416
132 la_data_out[11] 0.000660416
133 la_data_out[10] 0.000660416
134 la_data_out[9] 0.000660416
135 la_data_out[8] 0.000660416
136 la_data_out[7] 0.000660416
137 la_data_out[6] 0.000660416
138 la_data_out[5] 0.000660416
139 la_data_out[4] 0.000660416
140 la_data_out[3] 0.000660416
141 la_data_out[2] 0.000660416
142 la_data_out[1] 0.000660416
143 la_data_out[0] 0.000660416
144 wbs_dat_o[31] 0.000666081
145 wbs_dat_o[30] 0.000666081
146 wbs_dat_o[29] 0.000666081
147 wbs_dat_o[28] 0.000666081
148 wbs_dat_o[27] 0.000666081
149 wbs_dat_o[26] 0.000660416
150 wbs_dat_o[25] 0.000660416
151 wbs_dat_o[24] 0.000666081
152 wbs_dat_o[23] 0.000666081
153 wbs_dat_o[22] 0.000666081
154 wbs_dat_o[21] 0.000666081
155 wbs_dat_o[20] 0.000666081
156 wbs_dat_o[19] 0.000660416
157 wbs_dat_o[18] 0.000660416
158 wbs_dat_o[17] 0.000660416
159 wbs_dat_o[16] 0.000660416
160 wbs_dat_o[15] 0.00150617
161 user_irq[1] 4.52664e-05
162 user_irq[2] 0.000487366
163 user_irq[0] 5.06277e-05
164 io_oeb[15] 0.000767633
165 io_oeb[16] 0.000604153
166 io_out[17] 0.000604153
167 io_out[18] 0.000610367
168 io_out[19] 0.000619579
169 io_out[20] 0.000645084
170 io_out[21] 0.000604153
171 io_out[22] 0.00062595
172 io_out[23] 0.000686339
173 io_out[24] 0.0008386
174 io_out[26] 0.000875434
175 io_out[27] 0.00079978
176 io_out[28] 0.000816226
177 io_out[29] 0.00080613
178 io_out[30] 0.000804204
179 io_out[31] 0.000882339
180 io_out[32] 0.000810215
181 io_out[33] 0.00080613
182 io_out[34] 0.000816226
183 io_out[35] 0.00080613
184 io_out[36] 0.00085309
185 wbs_dat_o[14] 0.00149874
186 wbs_dat_o[13] 0.000666081
187 wbs_dat_o[12] 0.000660416
188 wbs_dat_o[11] 0.000660416
189 wbs_dat_o[10] 0.000660416
190 wbs_dat_o[9] 0.000660416
191 wbs_dat_o[8] 0.000660416
192 wbs_dat_o[7] 0.000660416
193 wbs_dat_o[6] 0.000660416
194 wbs_dat_o[5] 0.000660416
195 wbs_dat_o[4] 0.000738922
196 wbs_dat_o[3] 0.00064021
197 wbs_dat_o[2] 0.00061749
198 wbs_dat_o[1] 0.000594787
199 wbs_dat_o[0] 0.000572084
200 wbs_ack_o 0.000723231
201 io_out[37] 0.000953352
202 io_out[25] 0.00080613
203 *426:LO 0
204 *68:884 0.00300037
205 *68:882 0.00234895
206 *68:880 0.00234895
207 *68:878 0.00235007
208 *68:876 0.00235461
209 *68:874 0.00235124
210 *68:872 0.00234899
211 *68:870 0.00234899
212 *68:868 0.00235012
213 *68:866 0.0023377
214 *68:864 0.00236205
215 *68:862 0.00235461
216 *68:860 0.00235124
217 *68:858 0.00234899
218 *68:856 0.00234899
219 *68:854 0.0020775
220 *68:852 0.00207633
221 *68:850 0.00237217
222 *68:848 0.00234895
223 *68:846 0.00233995
224 *68:844 0.00233096
225 *68:842 0.00233995
226 *68:840 0.00234895
227 *68:838 0.0023512
228 *68:836 0.0023512
229 *68:834 0.00234895
230 *68:832 0.00236992
231 *68:830 0.0023512
232 *68:828 0.00235345
233 *68:826 0.0023422
234 *68:824 0.00233096
235 *68:822 0.00233995
236 *68:820 0.00234895
237 *68:818 0.00234895
238 *68:816 0.0023512
239 *68:814 0.00235345
240 *68:812 0.0023512
241 *68:810 0.00236992
242 *68:808 0.00234895
243 *68:806 0.00233995
244 *68:804 0.00233096
245 *68:802 0.0023422
246 *68:800 0.00235345
247 *68:798 0.0023512
248 *68:796 0.00234895
249 *68:794 0.00234895
250 *68:792 0.00236992
251 *68:790 0.00235349
252 *68:788 0.00235124
253 *68:786 0.00234787
254 *68:784 0.00233545
255 *68:782 0.00233995
256 *68:780 0.00234895
257 *68:778 0.00234783
258 *68:776 0.00235349
259 *68:774 0.00235124
260 *68:772 0.00234899
261 *68:770 0.00237109
262 *68:768 0.00235124
263 *68:766 0.00235007
264 *68:764 0.0023422
265 *68:762 0.0023377
266 *68:760 0.00234899
267 *68:758 0.00234899
268 *68:756 0.00235012
269 *68:754 0.0023467
270 *68:752 0.00237217
271 *68:750 0.0023512
272 *68:748 0.00234895
273 *68:746 0.00234895
274 *68:744 0.00233995
275 *68:742 0.00233096
276 *68:740 0.00233995
277 *68:738 0.0023512
278 *68:736 0.0023512
279 *68:734 0.00236992
280 *68:732 0.00234895
281 *68:730 0.0023512
282 *68:728 0.00235345
283 *68:726 0.0023512
284 *68:724 0.00233995
285 *68:722 0.00233096
286 *68:720 0.00233995
287 *68:718 0.00234895
288 *68:716 0.0023512
289 *68:714 0.00235345
290 *68:712 0.00237217
291 *68:710 0.00234895
292 *68:708 0.00234895
293 *68:706 0.0023512
294 *68:704 0.0023422
295 *68:702 0.00233096
296 *68:700 0.0023422
297 *68:698 0.0023512
298 *68:696 0.00234895
299 *68:694 0.00236992
300 *68:692 0.0023512
301 *68:690 0.0023512
302 *68:688 0.00234895
303 *68:686 0.00234895
304 *68:684 0.00233995
305 *68:682 0.00233096
306 *68:680 0.00233995
307 *68:678 0.0023512
308 *68:676 0.0023512
309 *68:674 0.00234895
310 *68:672 0.00236992
311 *68:670 0.0023512
312 *68:668 0.00235345
313 *68:666 0.00234895
314 *68:664 0.00234449
315 *68:662 0.00233208
316 *68:660 0.00233995
317 *68:658 0.00234895
318 *68:656 0.0023512
319 *68:654 0.00237442
320 *68:652 0.00234895
321 *68:650 0.00235012
322 *68:648 0.00234899
323 *68:646 0.00234899
324 *68:644 0.00235124
325 *68:642 0.00233883
326 *68:640 0.00234108
327 *68:638 0.00235349
328 *68:636 0.00234899
329 *68:634 0.00234899
330 *68:632 0.00237109
331 *68:630 0.00235124
332 *68:628 0.00235461
333 *68:626 0.00235007
334 *68:624 0.00234895
335 *68:622 0.00233995
336 *68:620 0.00233433
337 *68:618 0.00236211
338 *68:616 0.00235735
339 *68:614 0.00236632
340 *68:612 0.00233996
341 *68:610 0.00233884
342 *68:608 0.00233884
343 *68:606 0.00234109
344 *68:604 0.00225436
345 *68:600 0.00256347
346 *68:594 0.00270831
347 *68:592 0.00254872
348 *68:566 0.000837448
349 *68:550 0.000870689
350 *68:544 0.00461588
351 *68:542 0.00633089
352 *68:540 0.00548411
353 *68:538 0.00549541
354 *68:536 0.00550294
355 *68:534 0.00550218
356 *68:532 0.00550143
357 *68:530 0.00625357
358 *68:528 0.00731132
359 *68:526 0.0084608
360 *68:524 0.00932932
361 *68:522 0.0101544
362 *68:520 0.0134021
363 *68:518 0.0158104
364 *68:516 0.0180189
365 *68:514 0.00970347
366 *68:512 0.00167784
367 *68:504 0.0138633
368 *68:494 0.0164931
369 *68:314 0.00302069
370 *68:304 0.00235007
371 *68:294 0.00234895
372 *68:284 0.00234895
373 *68:274 0.0023512
374 *68:264 0.0023512
375 *68:254 0.00234895
376 *68:244 0.00236092
377 *68:234 0.00242243
378 *68:222 0.00278341
379 *68:212 0.00295283
380 *68:202 0.00297318
381 *68:192 0.00294296
382 *68:182 0.00328601
383 *68:170 0.00226029
384 *68:168 0.00373915
385 *68:166 0.00389996
386 *68:152 0.00111416
387 *68:150 0.0055221
388 *68:148 0.011853
389 *68:146 0.00634175
390 *68:142 0.0123736
391 *68:140 0.0188577
392 *68:138 0.0155109
393 *68:136 0.0084421
394 *68:128 0.00744776
395 *68:126 0.0156662
396 *68:124 0.00781979
397 *68:116 0.00836854
398 *68:114 0.0154917
399 *68:112 0.0155225
400 *68:110 0.00841565
401 *68:102 0.00767302
402 *68:100 0.00982507
403 *68:98 0.00155335
404 *68:96 0.004088
405 *68:94 0.00410619
406 *68:92 0.00197338
407 *68:90 0.0020528
408 *68:80 0.000930966
409 *68:78 0.00722168
410 *68:76 0.00892274
411 *68:72 0.00258311
412 *68:68 0.00526518
413 *68:66 0.00522172
414 *68:64 0.00679941
415 *68:62 0.00748575
416 *68:60 0.0074046
417 *68:58 0.00814425
418 *68:52 0.00254676
419 *68:50 0.0031637
420 *68:46 0.0105383
421 *68:44 0.00980767
422 *68:42 0.000665738
423 *68:38 0.0101368
424 *68:36 0.0108263
425 *68:32 0.00984928
426 *68:30 0.0108694
427 *68:26 0.0105379
428 *68:24 0.0219568
429 *68:22 0.0238117
430 *68:20 0.0130193
431 *68:12 0.0133865
432 *68:10 0.0155792
433 *68:8 0.00396768
434 *68:6 0.00396768
435 wbs_dat_o[1] *75:17 0
436 wbs_dat_o[3] *75:17 0
437 wbs_dat_o[4] *72:11 0
438 wbs_dat_o[4] *76:17 9.85586e-06
439 *68:24 *69:238 0.0230714
440 *68:26 *69:224 0.0122325
441 *68:26 *69:236 0.000751588
442 *68:26 *69:238 0.00641641
443 *68:30 *69:224 0.00149987
444 *68:32 *69:216 0.0229078
445 *68:32 *69:224 0.00769562
446 *68:36 *69:216 0.00010849
447 *68:38 *69:202 0.0218114
448 *68:38 *69:206 0.000729737
449 *68:38 *69:216 0.00435215
450 *68:46 *69:188 0.0118364
451 *68:46 *69:200 0.00114816
452 *68:46 *69:202 0.00570986
453 *68:50 *69:188 0.00220537
454 *68:52 *69:188 0.00567542
455 *68:58 *69:188 0.00111827
456 *68:60 *69:180 0.0231762
457 *68:60 *69:188 5.50106e-05
458 *68:78 *69:168 0.00835522
459 *68:92 *69:154 3.43217e-05
460 *68:92 *69:166 0.000180035
461 *68:92 *69:168 0.00483994
462 *68:96 *69:154 0.0118325
463 *68:100 *69:154 0.00212949
464 *68:102 *69:140 0.0130444
465 *68:102 *69:144 0.00127964
466 *68:102 *69:154 0.00277441
467 *68:110 *69:140 0.000449659
468 *68:112 *69:130 0.0159915
469 *68:112 *69:140 0.0053246
470 *68:114 *69:120 0.0159356
471 *68:114 *69:130 0.00532025
472 *68:116 *69:110 0.0159375
473 *68:116 *69:120 0.00532211
474 *68:124 *69:110 0.00033972
475 *68:126 *69:92 6.18015e-05
476 *68:126 *69:96 0.00619413
477 *68:126 *69:100 0.00410325
478 *68:126 *69:110 0.0050016
479 *68:128 *69:82 0.0154903
480 *68:128 *69:92 0.00533172
481 *68:136 *69:82 0.000449037
482 *68:138 *69:72 0.0159894
483 *68:138 *69:82 0.00532709
484 *68:140 *69:62 0.0159328
485 *68:140 *69:72 0.0053218
486 *68:142 *69:44 0
487 *68:142 *69:60 0
488 *68:142 *69:62 0.00489721
489 *68:146 *69:44 0
490 *68:148 *69:12 0.00129596
491 *68:148 *69:14 0.0106551
492 *68:148 *69:44 0
493 *68:150 *69:14 0.00533203
494 *68:150 *69:16 0.0106088
495 *68:168 *69:16 0
496 *68:516 *75:25 0
497 *68:518 *75:25 0
498 *68:522 *72:17 0.00568282
499 *68:524 *72:17 0.00756672
500 *68:526 *72:17 0.00762361
501 *68:528 *72:17 0.00189479
502 *68:528 *85:17 0.0162547
503 *68:530 *85:17 0.0216394
504 *68:532 *85:17 0.0162521
505 *68:534 *85:17 0.0162521
506 *68:536 *85:17 0.0162518
507 *68:538 *85:17 0.0162518
508 *68:540 *85:17 0.0162549
509 *68:542 *85:17 0.0162564
510 *68:544 *85:17 0.0120973
511 *68:550 *85:17 0.000534968
512 *427:multiplicand[1] wbs_dat_o[3] 0
513 *427:multiplicand[2] wbs_dat_o[2] 0
514 *427:multiplier[2] wbs_dat_o[14] 0.00050139
515 *427:multiplier[2] wbs_dat_o[15] 0.000514942
516 *427:multiplier[2] *68:244 0.000514942
517 *427:multiplier[2] *68:254 0.000514942
518 *427:multiplier[2] *68:264 0.00050139
519 *427:multiplier[2] *68:274 0.000514942
520 *427:multiplier[2] *68:284 0.00050139
521 *427:multiplier[2] *68:294 0.000514942
522 *427:multiplier[2] *68:304 0.00050139
523 *427:multiplier[2] *68:314 0.000514942
524 *427:multiplier[2] *68:592 0.000244076
525 *427:multiplier[2] *68:594 0.000361242
526 *427:multiplier[2] *68:600 0.000410062
527 *427:multiplier[2] *68:604 0.000447182
528 *427:multiplier[2] *68:606 0.000514942
529 *427:multiplier[2] *68:608 0.00050139
530 *427:multiplier[2] *68:610 0.000514942
531 *427:multiplier[2] *68:612 0.00050139
532 *427:multiplier[2] *68:614 0.000514942
533 *427:multiplier[2] *68:616 0.000514942
534 *427:multiplier[2] *68:618 0.000487808
535 *427:multiplier[2] *68:620 0.000514942
536 *427:multiplier[2] *68:622 0.00050139
537 *427:multiplier[2] *68:624 0.000514942
538 *427:multiplier[2] *68:626 0.00050139
539 *427:multiplier[2] *68:628 0.000514942
540 *427:multiplier[2] *68:630 0.00050139
541 *427:multiplier[2] *68:632 0.000514942
542 *427:multiplier[2] *68:634 0.000514942
543 *427:multiplier[2] *68:636 0.00050139
544 *427:multiplier[2] *68:638 0.000514942
545 *427:multiplier[2] *68:640 0.00050139
546 *427:multiplier[2] *68:642 0.000514942
547 *427:multiplier[2] *68:644 0.00050139
548 *427:multiplier[2] *68:646 0.000514942
549 *427:multiplier[2] *68:648 0.00050139
550 *427:multiplier[2] *68:650 0.000514942
551 *427:multiplier[2] *68:652 0.00050139
552 *427:multiplier[2] *68:654 0.000514942
553 *427:multiplier[2] *68:656 0.000514942
554 *427:multiplier[2] *68:658 0.00050139
555 *427:multiplier[2] *68:660 0.000514942
556 *427:multiplier[2] *68:662 0.00050139
557 *427:multiplier[2] *68:664 0.000514942
558 *427:multiplier[2] *68:666 0.00050139
559 *427:multiplier[2] *68:668 0.000514942
560 *427:multiplier[2] *68:670 0.00050139
561 *427:multiplier[2] *68:672 0.000514942
562 *427:multiplier[2] *68:674 0.000514942
563 *427:multiplier[2] *68:676 0.00050139
564 *427:multiplier[2] *68:678 0.000514942
565 *427:multiplier[2] *68:680 0.00050139
566 *427:multiplier[2] *68:682 0.000514942
567 *427:multiplier[2] *68:684 0.00050139
568 *427:multiplier[2] *68:686 0.000514942
569 *427:multiplier[2] *68:688 0.00050139
570 *427:multiplier[2] *68:690 0.000514942
571 *427:multiplier[2] *68:692 0.00050139
572 *427:multiplier[2] *68:694 0.000514942
573 *427:multiplier[2] *68:696 0.000514942
574 *427:multiplier[2] *68:698 0.00050139
575 *427:multiplier[2] *68:700 0.000514942
576 *427:multiplier[2] *68:702 0.00050139
577 *427:multiplier[2] *68:704 0.000514942
578 *427:multiplier[2] *68:706 0.00050139
579 *427:multiplier[2] *68:708 0.000514942
580 *427:multiplier[2] *68:710 0.00050139
581 *427:multiplier[2] *68:712 0.000514942
582 *427:multiplier[2] *68:714 0.000514942
583 *427:multiplier[2] *68:716 0.00050139
584 *427:multiplier[2] *68:718 0.000514942
585 *427:multiplier[2] *68:720 0.00050139
586 *427:multiplier[2] *68:722 0.000514942
587 *427:multiplier[2] *68:724 0.00050139
588 *427:multiplier[2] *68:726 0.000514942
589 *427:multiplier[2] *68:728 0.00050139
590 *427:multiplier[2] *68:730 0.000514942
591 *427:multiplier[2] *68:732 0.00050139
592 *427:multiplier[2] *68:734 0.000514942
593 *427:multiplier[2] *68:736 0.000514942
594 *427:multiplier[2] *68:738 0.00050139
595 *427:multiplier[2] *68:740 0.000514942
596 *427:multiplier[2] *68:742 0.00050139
597 *427:multiplier[2] *68:744 0.000514942
598 *427:multiplier[2] *68:746 0.00050139
599 *427:multiplier[2] *68:748 0.000514942
600 *427:multiplier[2] *68:750 0.00050139
601 *427:multiplier[2] *68:752 0.000514942
602 *427:multiplier[2] *68:754 0.000514942
603 *427:multiplier[2] *68:756 0.00050139
604 *427:multiplier[2] *68:758 0.000514942
605 *427:multiplier[2] *68:760 0.00050139
606 *427:multiplier[2] *68:762 0.000514942
607 *427:multiplier[2] *68:764 0.00050139
608 *427:multiplier[2] *68:766 0.000514942
609 *427:multiplier[2] *68:768 0.00050139
610 *427:multiplier[2] *68:770 0.000514942
611 *427:multiplier[2] *68:772 0.000514942
612 *427:multiplier[2] *68:774 0.00050139
613 *427:multiplier[2] *68:776 0.000514942
614 *427:multiplier[2] *68:778 0.00050139
615 *427:multiplier[2] *68:780 0.000514942
616 *427:multiplier[2] *68:782 0.00050139
617 *427:multiplier[2] *68:784 0.000514942
618 *427:multiplier[2] *68:786 0.00050139
619 *427:multiplier[2] *68:788 0.000514942
620 *427:multiplier[2] *68:790 0.00050139
621 *427:multiplier[2] *68:792 0.000514942
622 *427:multiplier[2] *68:794 0.000514942
623 *427:multiplier[2] *68:796 0.00050139
624 *427:multiplier[2] *68:798 0.000514942
625 *427:multiplier[2] *68:800 0.00050139
626 *427:multiplier[2] *68:802 0.000514942
627 *427:multiplier[2] *68:804 0.00050139
628 *427:multiplier[2] *68:806 0.000514942
629 *427:multiplier[2] *68:808 0.00050139
630 *427:multiplier[2] *68:810 0.000514942
631 *427:multiplier[2] *68:812 0.000514942
632 *427:multiplier[2] *68:814 0.00050139
633 *427:multiplier[2] *68:816 0.000514942
634 *427:multiplier[2] *68:818 0.00050139
635 *427:multiplier[2] *68:820 0.000514942
636 *427:multiplier[2] *68:822 0.00050139
637 *427:multiplier[2] *68:824 0.000514942
638 *427:multiplier[2] *68:826 0.00050139
639 *427:multiplier[2] *68:828 0.000514942
640 *427:multiplier[2] *68:830 0.00050139
641 *427:multiplier[2] *68:832 0.000514942
642 *427:multiplier[2] *68:834 0.000514942
643 *427:multiplier[2] *68:836 0.00050139
644 *427:multiplier[2] *68:838 0.000514942
645 *427:multiplier[2] *68:840 0.00050139
646 *427:multiplier[2] *68:842 0.000514942
647 *427:multiplier[2] *68:844 0.00050139
648 *427:multiplier[2] *68:846 0.000514942
649 *427:multiplier[2] *68:848 0.00050139
650 *427:multiplier[2] *68:850 0.000514942
651 *427:multiplier[2] *68:852 0.000514942
652 *427:multiplier[2] *68:854 0.000325215
653 *427:multiplier[2] *68:856 0.000514942
654 *427:multiplier[2] *68:858 0.00050139
655 *427:multiplier[2] *68:860 0.000514942
656 *427:multiplier[2] *68:862 0.00050139
657 *427:multiplier[2] *68:864 0.000514942
658 *427:multiplier[2] *68:866 0.000514942
659 *427:multiplier[2] *68:868 0.00050139
660 *427:multiplier[2] *68:870 0.000514942
661 *427:multiplier[2] *68:872 0.00050139
662 *427:multiplier[2] *68:874 0.000514942
663 *427:multiplier[2] *68:876 0.00050139
664 *427:multiplier[2] *68:878 0.000514942
665 *427:multiplier[2] *68:880 0.00050139
666 *427:multiplier[2] *68:882 0.000514942
667 *427:multiplier[2] *68:884 0.00050139
668 *31:9 *68:524 0.00125132
669 *31:9 *68:526 0.00250263
670 *31:9 *68:528 0.00250263
671 *31:9 *68:530 0.00249618
672 *31:9 *68:532 0.000625656
673 *31:9 *68:544 0.000555558
674 *33:9 *68:520 0.00125132
675 *33:9 *68:522 0.00250263
676 *33:9 *68:524 0.000619206
677 *34:9 *68:518 0
678 *34:9 *68:520 0
679 *34:9 *68:522 0
680 *35:9 *68:516 0.0108876
681 *35:9 *68:518 0.0216425
682 *35:9 *68:520 0.0216962
683 *35:9 *68:522 0.0216965
684 *35:9 *68:524 0.0216413
685 *35:9 *68:526 0.0217003
686 *35:9 *68:528 0.0216972
687 *35:9 *68:530 0.0216456
688 *35:9 *68:532 0.0162583
689 *35:9 *68:534 0.0162583
690 *35:9 *68:536 0.0162579
691 *35:9 *68:538 0.0162579
692 *35:9 *68:540 0.0162611
693 *35:9 *68:542 0.0162626
694 *35:9 *68:544 0.00511278
695 *36:9 *68:12 0.0113781
696 *36:9 *68:38 0.00671092
697 *36:9 *68:494 0.00238379
698 *36:9 *68:504 0.0070478
699 *64:9 *68:532 0.000831716
700 *64:9 *68:534 0.00251248
701 *64:9 *68:536 0.00251248
702 *64:9 *68:538 0.00251248
703 *64:9 *68:540 0.00251248
704 *64:9 *68:542 0.00251248
705 *64:9 *68:544 0.00107187
*RES
1 *426:LO *68:6 38 
2 *68:6 *68:8 91.7021 
3 *68:8 *68:10 15 
4 *68:10 *68:12 272.186 
5 *68:12 *68:20 40.4814 
6 *68:20 *68:22 252.176 
7 *68:22 *68:24 336.027 
8 *68:24 *68:26 320.067 
9 *68:26 *68:30 17.0789 
10 *68:30 *68:32 333.883 
11 *68:32 *68:36 2.78607 
12 *68:36 *68:38 336.027 
13 *68:38 *68:42 15.8493 
14 *68:42 *68:44 15 
15 *68:44 *68:46 312.444 
16 *68:46 *68:50 24.7018 
17 *68:50 *68:52 61.8425 
18 *68:52 *68:58 22.8168 
19 *68:58 *68:60 253.605 
20 *68:60 *68:62 15 
21 *68:62 *68:64 153.327 
22 *68:64 *68:66 15 
23 *68:66 *68:68 110.2 
24 *68:68 *68:72 15.6732 
25 *68:72 *68:76 39.3364 
26 *68:76 *68:78 231.316 
27 *68:78 *68:80 8 
28 *68:80 io_out[25] 2.38933 
29 *68:80 *68:90 8.3136 
30 *68:90 *68:92 69.1236 
31 *68:92 *68:94 1.09786 
32 *68:94 *68:96 150.22 
33 *68:96 *68:98 0.621429 
34 *68:98 *68:100 51.5371 
35 *68:100 *68:102 264.252 
36 *68:102 *68:110 22.007 
37 *68:110 *68:112 270.591 
38 *68:112 *68:114 269.886 
39 *68:114 *68:116 269.886 
40 *68:116 *68:124 20.5984 
41 *68:124 *68:126 266.365 
42 *68:126 *68:128 264.252 
43 *68:128 *68:136 22.007 
44 *68:136 *68:138 270.591 
45 *68:138 *68:140 269.886 
46 *68:140 *68:142 270.591 
47 *68:142 *68:146 20.1343 
48 *68:146 *68:148 182.907 
49 *68:148 *68:150 202.275 
50 *68:150 *68:152 8 
51 *68:152 io_out[37] 2.71413 
52 *68:152 *68:166 8.5712 
53 *68:166 *68:168 86.5961 
54 *68:168 *68:170 15 
55 *68:170 wbs_ack_o 30.9293 
56 *68:170 *68:182 33.9714 
57 *68:182 wbs_dat_o[0] 27.9257 
58 *68:182 *68:192 24.9193 
59 *68:192 wbs_dat_o[1] 27.9257 
60 *68:192 *68:202 24.4429 
61 *68:202 wbs_dat_o[2] 27.9257 
62 *68:202 *68:212 24.9193 
63 *68:212 wbs_dat_o[3] 27.9257 
64 *68:212 *68:222 23.49 
65 *68:222 wbs_dat_o[4] 29.7279 
66 *68:222 *68:234 19.2021 
67 *68:234 wbs_dat_o[5] 27.9257 
68 *68:234 *68:244 18.7257 
69 *68:244 wbs_dat_o[6] 27.9257 
70 *68:244 *68:254 18.7257 
71 *68:254 wbs_dat_o[7] 27.9257 
72 *68:254 *68:264 18.2493 
73 *68:264 wbs_dat_o[8] 27.9257 
74 *68:264 *68:274 18.7257 
75 *68:274 wbs_dat_o[9] 27.9257 
76 *68:274 *68:284 18.2493 
77 *68:284 wbs_dat_o[10] 27.9257 
78 *68:284 *68:294 18.7257 
79 *68:294 wbs_dat_o[11] 27.9257 
80 *68:294 *68:304 18.2493 
81 *68:304 wbs_dat_o[12] 27.9257 
82 *68:304 *68:314 18.7257 
83 *68:314 wbs_dat_o[13] 27.9257 
84 *68:314 wbs_dat_o[14] 46.175 
85 *68:148 io_out[36] 10.4752 
86 *68:142 io_out[35] 10.3893 
87 *68:140 io_out[34] 10.3893 
88 *68:138 io_out[33] 10.3893 
89 *68:136 io_out[32] 10.3893 
90 *68:126 io_out[31] 10.5611 
91 *68:116 io_out[30] 10.3893 
92 *68:114 io_out[29] 10.3893 
93 *68:112 io_out[28] 10.3893 
94 *68:110 io_out[27] 10.3893 
95 *68:100 io_out[26] 10.5611 
96 *68:72 io_out[24] 10.4752 
97 *68:62 io_out[23] 15.225 
98 *68:50 io_out[22] 28.9821 
99 *68:42 io_out[21] 13.63 
100 *68:36 io_out[20] 29.3343 
101 *68:30 io_out[19] 28.9821 
102 *68:24 io_out[18] 28.63 
103 *68:22 io_out[17] 28.63 
104 *68:20 io_oeb[16] 28.63 
105 *68:10 *68:494 57.3164 
106 *68:494 io_oeb[15] 32.1514 
107 *68:494 *68:504 275.521 
108 *68:504 *68:512 39.6528 
109 *68:512 *68:514 8 
110 *68:514 *68:516 275.521 
111 *68:516 *68:518 274.816 
112 *68:518 *68:520 275.521 
113 *68:520 *68:522 275.521 
114 *68:522 *68:524 274.816 
115 *68:524 *68:526 275.521 
116 *68:526 *68:528 275.521 
117 *68:528 *68:530 274.816 
118 *68:530 *68:532 206.501 
119 *68:532 *68:534 206.501 
120 *68:534 *68:536 206.501 
121 *68:536 *68:538 206.501 
122 *68:538 *68:540 206.501 
123 *68:540 *68:542 206.501 
124 *68:542 *68:544 153.855 
125 *68:544 *68:550 16.0018 
126 *68:550 user_irq[0] 1.48107 
127 *68:550 *68:566 8.07857 
128 *68:566 user_irq[2] 39.9118 
129 *68:566 user_irq[1] 1.02536 
130 *68:544 *68:592 32.7729 
131 *68:592 *68:594 18.2493 
132 *68:594 *68:600 38.9457 
133 *68:600 *68:604 31.3436 
134 *68:604 *68:606 18.7257 
135 *68:606 *68:608 18.2493 
136 *68:608 *68:610 18.7257 
137 *68:610 *68:612 18.2493 
138 *68:612 *68:614 18.7257 
139 *68:614 *68:616 18.7257 
140 *68:616 *68:618 18.2493 
141 *68:618 *68:620 18.7257 
142 *68:620 *68:622 18.2493 
143 *68:622 *68:624 18.7257 
144 *68:624 *68:626 18.2493 
145 *68:626 *68:628 18.7257 
146 *68:628 *68:630 18.2493 
147 *68:630 *68:632 18.7257 
148 *68:632 *68:634 18.7257 
149 *68:634 *68:636 18.2493 
150 *68:636 *68:638 18.7257 
151 *68:638 *68:640 18.2493 
152 *68:640 *68:642 18.7257 
153 *68:642 *68:644 18.2493 
154 *68:644 *68:646 18.7257 
155 *68:646 *68:648 18.2493 
156 *68:648 *68:650 18.7257 
157 *68:650 *68:652 18.2493 
158 *68:652 *68:654 18.7257 
159 *68:654 *68:656 18.7257 
160 *68:656 *68:658 18.2493 
161 *68:658 *68:660 18.7257 
162 *68:660 *68:662 18.2493 
163 *68:662 *68:664 18.7257 
164 *68:664 *68:666 18.2493 
165 *68:666 *68:668 18.7257 
166 *68:668 *68:670 18.2493 
167 *68:670 *68:672 18.7257 
168 *68:672 *68:674 18.7257 
169 *68:674 *68:676 18.2493 
170 *68:676 *68:678 18.7257 
171 *68:678 *68:680 18.2493 
172 *68:680 *68:682 18.7257 
173 *68:682 *68:684 18.2493 
174 *68:684 *68:686 18.7257 
175 *68:686 *68:688 18.2493 
176 *68:688 *68:690 18.7257 
177 *68:690 *68:692 18.2493 
178 *68:692 *68:694 18.7257 
179 *68:694 *68:696 18.7257 
180 *68:696 *68:698 18.2493 
181 *68:698 *68:700 18.7257 
182 *68:700 *68:702 18.2493 
183 *68:702 *68:704 18.7257 
184 *68:704 *68:706 18.2493 
185 *68:706 *68:708 18.7257 
186 *68:708 *68:710 18.2493 
187 *68:710 *68:712 18.7257 
188 *68:712 *68:714 18.7257 
189 *68:714 *68:716 18.2493 
190 *68:716 *68:718 18.7257 
191 *68:718 *68:720 18.2493 
192 *68:720 *68:722 18.7257 
193 *68:722 *68:724 18.2493 
194 *68:724 *68:726 18.7257 
195 *68:726 *68:728 18.2493 
196 *68:728 *68:730 18.7257 
197 *68:730 *68:732 18.2493 
198 *68:732 *68:734 18.7257 
199 *68:734 *68:736 18.7257 
200 *68:736 *68:738 18.2493 
201 *68:738 *68:740 18.7257 
202 *68:740 *68:742 18.2493 
203 *68:742 *68:744 18.7257 
204 *68:744 *68:746 18.2493 
205 *68:746 *68:748 18.7257 
206 *68:748 *68:750 18.2493 
207 *68:750 *68:752 18.7257 
208 *68:752 *68:754 18.7257 
209 *68:754 *68:756 18.2493 
210 *68:756 *68:758 18.7257 
211 *68:758 *68:760 18.2493 
212 *68:760 *68:762 18.7257 
213 *68:762 *68:764 18.2493 
214 *68:764 *68:766 18.7257 
215 *68:766 *68:768 18.2493 
216 *68:768 *68:770 18.7257 
217 *68:770 *68:772 18.7257 
218 *68:772 *68:774 18.2493 
219 *68:774 *68:776 18.7257 
220 *68:776 *68:778 18.2493 
221 *68:778 *68:780 18.7257 
222 *68:780 *68:782 18.2493 
223 *68:782 *68:784 18.7257 
224 *68:784 *68:786 18.2493 
225 *68:786 *68:788 18.7257 
226 *68:788 *68:790 18.2493 
227 *68:790 *68:792 18.7257 
228 *68:792 *68:794 18.7257 
229 *68:794 *68:796 18.2493 
230 *68:796 *68:798 18.7257 
231 *68:798 *68:800 18.2493 
232 *68:800 *68:802 18.7257 
233 *68:802 *68:804 18.2493 
234 *68:804 *68:806 18.7257 
235 *68:806 *68:808 18.2493 
236 *68:808 *68:810 18.7257 
237 *68:810 *68:812 18.7257 
238 *68:812 *68:814 18.2493 
239 *68:814 *68:816 18.7257 
240 *68:816 *68:818 18.2493 
241 *68:818 *68:820 18.7257 
242 *68:820 *68:822 18.2493 
243 *68:822 *68:824 18.7257 
244 *68:824 *68:826 18.2493 
245 *68:826 *68:828 18.7257 
246 *68:828 *68:830 18.2493 
247 *68:830 *68:832 18.7257 
248 *68:832 *68:834 18.7257 
249 *68:834 *68:836 18.2493 
250 *68:836 *68:838 18.7257 
251 *68:838 *68:840 18.2493 
252 *68:840 *68:842 18.7257 
253 *68:842 *68:844 18.2493 
254 *68:844 *68:846 18.7257 
255 *68:846 *68:848 18.2493 
256 *68:848 *68:850 18.7257 
257 *68:850 *68:852 18.7257 
258 *68:852 *68:854 12.0557 
259 *68:854 *68:856 18.7257 
260 *68:856 *68:858 18.2493 
261 *68:858 *68:860 18.7257 
262 *68:860 *68:862 18.2493 
263 *68:862 *68:864 18.7257 
264 *68:864 *68:866 18.7257 
265 *68:866 *68:868 18.2493 
266 *68:868 *68:870 18.7257 
267 *68:870 *68:872 18.2493 
268 *68:872 *68:874 18.7257 
269 *68:874 *68:876 18.2493 
270 *68:876 *68:878 18.7257 
271 *68:878 *68:880 18.2493 
272 *68:880 *68:882 18.7257 
273 *68:882 *68:884 18.2493 
274 *68:884 wbs_dat_o[15] 46.6514 
275 *68:884 wbs_dat_o[16] 27.9257 
276 *68:882 wbs_dat_o[17] 27.9257 
277 *68:880 wbs_dat_o[18] 27.9257 
278 *68:878 wbs_dat_o[19] 27.9257 
279 *68:876 wbs_dat_o[20] 27.9257 
280 *68:874 wbs_dat_o[21] 27.9257 
281 *68:872 wbs_dat_o[22] 27.9257 
282 *68:870 wbs_dat_o[23] 27.9257 
283 *68:868 wbs_dat_o[24] 27.9257 
284 *68:866 wbs_dat_o[25] 27.9257 
285 *68:864 wbs_dat_o[26] 27.9257 
286 *68:862 wbs_dat_o[27] 27.9257 
287 *68:860 wbs_dat_o[28] 27.9257 
288 *68:858 wbs_dat_o[29] 27.9257 
289 *68:856 wbs_dat_o[30] 27.9257 
290 *68:854 wbs_dat_o[31] 27.9257 
291 *68:852 la_data_out[0] 27.9257 
292 *68:850 la_data_out[1] 27.9257 
293 *68:848 la_data_out[2] 27.9257 
294 *68:846 la_data_out[3] 27.9257 
295 *68:844 la_data_out[4] 27.9257 
296 *68:842 la_data_out[5] 27.9257 
297 *68:840 la_data_out[6] 27.9257 
298 *68:838 la_data_out[7] 27.9257 
299 *68:836 la_data_out[8] 27.9257 
300 *68:834 la_data_out[9] 27.9257 
301 *68:832 la_data_out[10] 27.9257 
302 *68:830 la_data_out[11] 27.9257 
303 *68:828 la_data_out[12] 27.9257 
304 *68:826 la_data_out[13] 27.9257 
305 *68:824 la_data_out[14] 27.9257 
306 *68:822 la_data_out[15] 27.9257 
307 *68:820 la_data_out[16] 27.9257 
308 *68:818 la_data_out[17] 27.9257 
309 *68:816 la_data_out[18] 27.9257 
310 *68:814 la_data_out[19] 27.9257 
311 *68:812 la_data_out[20] 27.9257 
312 *68:810 la_data_out[21] 27.9257 
313 *68:808 la_data_out[22] 27.9257 
314 *68:806 la_data_out[23] 27.9257 
315 *68:804 la_data_out[24] 27.9257 
316 *68:802 la_data_out[25] 27.9257 
317 *68:800 la_data_out[26] 27.9257 
318 *68:798 la_data_out[27] 27.9257 
319 *68:796 la_data_out[28] 27.9257 
320 *68:794 la_data_out[29] 27.9257 
321 *68:792 la_data_out[30] 27.9257 
322 *68:790 la_data_out[31] 27.9257 
323 *68:788 la_data_out[32] 27.9257 
324 *68:786 la_data_out[33] 27.9257 
325 *68:784 la_data_out[34] 27.9257 
326 *68:782 la_data_out[35] 27.9257 
327 *68:780 la_data_out[36] 27.9257 
328 *68:778 la_data_out[37] 27.9257 
329 *68:776 la_data_out[38] 27.9257 
330 *68:774 la_data_out[39] 27.9257 
331 *68:772 la_data_out[40] 27.9257 
332 *68:770 la_data_out[41] 27.9257 
333 *68:768 la_data_out[42] 27.9257 
334 *68:766 la_data_out[43] 27.9257 
335 *68:764 la_data_out[44] 27.9257 
336 *68:762 la_data_out[45] 27.9257 
337 *68:760 la_data_out[46] 27.9257 
338 *68:758 la_data_out[47] 27.9257 
339 *68:756 la_data_out[48] 27.9257 
340 *68:754 la_data_out[49] 27.9257 
341 *68:752 la_data_out[50] 27.9257 
342 *68:750 la_data_out[51] 27.9257 
343 *68:748 la_data_out[52] 27.9257 
344 *68:746 la_data_out[53] 27.9257 
345 *68:744 la_data_out[54] 27.9257 
346 *68:742 la_data_out[55] 27.9257 
347 *68:740 la_data_out[56] 27.9257 
348 *68:738 la_data_out[57] 27.9257 
349 *68:736 la_data_out[58] 27.9257 
350 *68:734 la_data_out[59] 27.9257 
351 *68:732 la_data_out[60] 27.9257 
352 *68:730 la_data_out[61] 27.9257 
353 *68:728 la_data_out[62] 27.9257 
354 *68:726 la_data_out[63] 27.9257 
355 *68:724 la_data_out[64] 27.9257 
356 *68:722 la_data_out[65] 27.9257 
357 *68:720 la_data_out[66] 27.9257 
358 *68:718 la_data_out[67] 27.9257 
359 *68:716 la_data_out[68] 27.9257 
360 *68:714 la_data_out[69] 27.9257 
361 *68:712 la_data_out[70] 27.9257 
362 *68:710 la_data_out[71] 27.9257 
363 *68:708 la_data_out[72] 27.9257 
364 *68:706 la_data_out[73] 27.9257 
365 *68:704 la_data_out[74] 27.9257 
366 *68:702 la_data_out[75] 27.9257 
367 *68:700 la_data_out[76] 27.9257 
368 *68:698 la_data_out[77] 27.9257 
369 *68:696 la_data_out[78] 27.9257 
370 *68:694 la_data_out[79] 27.9257 
371 *68:692 la_data_out[80] 27.9257 
372 *68:690 la_data_out[81] 27.9257 
373 *68:688 la_data_out[82] 27.9257 
374 *68:686 la_data_out[83] 27.9257 
375 *68:684 la_data_out[84] 27.9257 
376 *68:682 la_data_out[85] 27.9257 
377 *68:680 la_data_out[86] 27.9257 
378 *68:678 la_data_out[87] 27.9257 
379 *68:676 la_data_out[88] 27.9257 
380 *68:674 la_data_out[89] 27.9257 
381 *68:672 la_data_out[90] 27.9257 
382 *68:670 la_data_out[91] 27.9257 
383 *68:668 la_data_out[92] 27.9257 
384 *68:666 la_data_out[93] 27.9257 
385 *68:664 la_data_out[94] 27.9257 
386 *68:662 la_data_out[95] 27.9257 
387 *68:660 la_data_out[96] 27.9257 
388 *68:658 la_data_out[97] 27.9257 
389 *68:656 la_data_out[98] 27.9257 
390 *68:654 la_data_out[99] 27.9257 
391 *68:652 la_data_out[100] 27.9257 
392 *68:650 la_data_out[101] 27.9257 
393 *68:648 la_data_out[102] 27.9257 
394 *68:646 la_data_out[103] 27.9257 
395 *68:644 la_data_out[104] 27.9257 
396 *68:642 la_data_out[105] 27.9257 
397 *68:640 la_data_out[106] 27.9257 
398 *68:638 la_data_out[107] 27.9257 
399 *68:636 la_data_out[108] 27.9257 
400 *68:634 la_data_out[109] 27.9257 
401 *68:632 la_data_out[110] 27.9257 
402 *68:630 la_data_out[111] 27.9257 
403 *68:628 la_data_out[112] 27.9257 
404 *68:626 la_data_out[113] 27.9257 
405 *68:624 la_data_out[114] 27.9257 
406 *68:622 la_data_out[115] 27.9257 
407 *68:620 la_data_out[116] 27.9257 
408 *68:618 la_data_out[117] 27.9257 
409 *68:616 la_data_out[118] 27.9257 
410 *68:614 la_data_out[119] 27.9257 
411 *68:612 la_data_out[120] 27.9257 
412 *68:610 la_data_out[121] 27.9257 
413 *68:608 la_data_out[122] 27.9257 
414 *68:606 la_data_out[123] 27.9257 
415 *68:604 la_data_out[124] 27.9257 
416 *68:600 la_data_out[125] 14.9764 
417 *68:594 la_data_out[126] 31.095 
418 *68:592 la_data_out[127] 31.095 
419 *68:542 io_oeb[0] 10.5611 
420 *68:540 io_oeb[1] 10.5611 
421 *68:538 io_oeb[2] 10.5611 
422 *68:536 io_oeb[3] 10.5611 
423 *68:534 io_oeb[4] 10.5611 
424 *68:532 io_oeb[5] 10.5611 
425 *68:530 io_oeb[6] 10.5611 
426 *68:528 io_oeb[7] 10.5611 
427 *68:526 io_oeb[8] 10.5611 
428 *68:524 io_oeb[9] 10.5611 
429 *68:522 io_oeb[10] 10.5611 
430 *68:520 io_oeb[11] 10.5611 
431 *68:518 io_oeb[12] 10.5611 
432 *68:516 io_oeb[13] 10.5611 
433 *68:512 io_oeb[14] 2.56107 
*END

*D_NET *69 0.907195
*CONN
*P io_oeb[24] O
*P io_oeb[23] O
*P io_oeb[22] O
*P io_oeb[19] O
*P io_oeb[17] O
*P io_oeb[18] O
*P io_oeb[20] O
*P io_oeb[21] O
*P io_oeb[25] O
*P io_oeb[26] O
*P io_oeb[27] O
*P io_oeb[28] O
*P io_oeb[29] O
*P io_oeb[30] O
*P io_oeb[31] O
*P io_oeb[32] O
*P io_oeb[33] O
*P io_oeb[34] O
*P io_oeb[35] O
*P io_oeb[36] O
*P io_oeb[37] O
*I *425:HI O *D sky130_fd_sc_hd__conb_1
*CAP
1 io_oeb[24] 0.000875434
2 io_oeb[23] 0.000764408
3 io_oeb[22] 0.000604153
4 io_oeb[19] 0.000604153
5 io_oeb[17] 0.000629688
6 io_oeb[18] 0.000645084
7 io_oeb[20] 0.000604153
8 io_oeb[21] 0.000645084
9 io_oeb[25] 0.000816226
10 io_oeb[26] 0.00080613
11 io_oeb[27] 0.00085309
12 io_oeb[28] 0.000845074
13 io_oeb[29] 0.00085309
14 io_oeb[30] 0.0008386
15 io_oeb[31] 0.0008386
16 io_oeb[32] 0.000845074
17 io_oeb[33] 0.00085309
18 io_oeb[34] 0.000935425
19 io_oeb[35] 0.000816226
20 io_oeb[36] 0.000816226
21 io_oeb[37] 0.000805054
22 *425:HI 0
23 *69:238 0.0100158
24 *69:236 0.00988827
25 *69:224 0.0115956
26 *69:222 0.0105099
27 *69:218 0.000665738
28 *69:216 0.0100556
29 *69:206 0.0111405
30 *69:202 0.00923642
31 *69:200 0.00949541
32 *69:188 0.0118761
33 *69:186 0.0105708
34 *69:182 0.000683701
35 *69:180 0.0114434
36 *69:178 0.0114434
37 *69:176 0.0103433
38 *69:174 0.00957889
39 *69:172 0.00114747
40 *69:168 0.00968309
41 *69:166 0.00791911
42 *69:154 0.00872411
43 *69:144 0.009411
44 *69:140 0.00744935
45 *69:130 0.0147005
46 *69:120 0.0155353
47 *69:110 0.0155438
48 *69:100 0.00961025
49 *69:98 0.00144438
50 *69:96 0.00445792
51 *69:94 0.00445641
52 *69:92 0.00189645
53 *69:82 0.010059
54 *69:72 0.0155469
55 *69:62 0.0153913
56 *69:60 0.00755067
57 *69:44 0.0122497
58 *69:42 0.0109497
59 *69:16 0.0074184
60 *69:14 0.0129609
61 *69:12 0.00700658
62 *69:6 0.0720885
63 *69:4 0.0714295
64 *36:9 *69:188 0.00670781
65 *36:9 *69:200 0.000438499
66 *36:9 *69:224 0.00671092
67 *36:9 *69:236 0.000285977
68 *68:24 *69:238 0.0230714
69 *68:26 *69:224 0.0122325
70 *68:26 *69:236 0.000751588
71 *68:26 *69:238 0.00641641
72 *68:30 *69:224 0.00149987
73 *68:32 *69:216 0.0229078
74 *68:32 *69:224 0.00769562
75 *68:36 *69:216 0.00010849
76 *68:38 *69:202 0.0218114
77 *68:38 *69:206 0.000729737
78 *68:38 *69:216 0.00435215
79 *68:46 *69:188 0.0118364
80 *68:46 *69:200 0.00114816
81 *68:46 *69:202 0.00570986
82 *68:50 *69:188 0.00220537
83 *68:52 *69:188 0.00567542
84 *68:58 *69:188 0.00111827
85 *68:60 *69:180 0.0231762
86 *68:60 *69:188 5.50106e-05
87 *68:78 *69:168 0.00835522
88 *68:92 *69:154 3.43217e-05
89 *68:92 *69:166 0.000180035
90 *68:92 *69:168 0.00483994
91 *68:96 *69:154 0.0118325
92 *68:100 *69:154 0.00212949
93 *68:102 *69:140 0.0130444
94 *68:102 *69:144 0.00127964
95 *68:102 *69:154 0.00277441
96 *68:110 *69:140 0.000449659
97 *68:112 *69:130 0.0159915
98 *68:112 *69:140 0.0053246
99 *68:114 *69:120 0.0159356
100 *68:114 *69:130 0.00532025
101 *68:116 *69:110 0.0159375
102 *68:116 *69:120 0.00532211
103 *68:124 *69:110 0.00033972
104 *68:126 *69:92 6.18015e-05
105 *68:126 *69:96 0.00619413
106 *68:126 *69:100 0.00410325
107 *68:126 *69:110 0.0050016
108 *68:128 *69:82 0.0154903
109 *68:128 *69:92 0.00533172
110 *68:136 *69:82 0.000449037
111 *68:138 *69:72 0.0159894
112 *68:138 *69:82 0.00532709
113 *68:140 *69:62 0.0159328
114 *68:140 *69:72 0.0053218
115 *68:142 *69:44 0
116 *68:142 *69:60 0
117 *68:142 *69:62 0.00489721
118 *68:146 *69:44 0
119 *68:148 *69:12 0.00129596
120 *68:148 *69:14 0.0106551
121 *68:148 *69:44 0
122 *68:150 *69:14 0.00533203
123 *68:150 *69:16 0.0106088
124 *68:168 *69:16 0
*RES
1 *425:HI *69:4 23 
2 *69:4 *69:6 1512.81 
3 *69:6 *69:12 34.9996 
4 *69:12 *69:14 202.979 
5 *69:14 *69:16 202.275 
6 *69:16 io_oeb[37] 10.3893 
7 *69:14 io_oeb[36] 10.3893 
8 *69:12 io_oeb[35] 10.3893 
9 *69:6 *69:42 15 
10 *69:42 *69:44 253.512 
11 *69:44 io_oeb[34] 10.9904 
12 *69:44 *69:60 22.3505 
13 *69:60 *69:62 264.252 
14 *69:62 io_oeb[33] 10.4752 
15 *69:62 *69:72 270.591 
16 *69:72 io_oeb[32] 10.4752 
17 *69:72 *69:82 269.886 
18 *69:82 io_oeb[31] 10.4752 
19 *69:82 *69:92 68.5643 
20 *69:92 *69:94 0.621429 
21 *69:94 *69:96 150.22 
22 *69:96 *69:98 0.621429 
23 *69:98 *69:100 52.0964 
24 *69:100 io_oeb[30] 10.4752 
25 *69:100 *69:110 269.886 
26 *69:110 io_oeb[29] 10.4752 
27 *69:110 *69:120 269.886 
28 *69:120 io_oeb[28] 10.4752 
29 *69:120 *69:130 270.591 
30 *69:130 io_oeb[27] 10.4752 
31 *69:130 *69:140 238.815 
32 *69:140 *69:144 31.8379 
33 *69:144 io_oeb[26] 10.3893 
34 *69:144 *69:154 270.591 
35 *69:154 io_oeb[25] 10.3893 
36 *69:154 *69:166 7.58143 
37 *69:166 *69:168 263.724 
38 *69:168 *69:172 38.9664 
39 *69:172 *69:174 15 
40 *69:174 *69:176 221.643 
41 *69:176 *69:178 15 
42 *69:178 *69:180 338.886 
43 *69:180 *69:182 15 
44 *69:182 *69:186 15.8493 
45 *69:186 *69:188 336.027 
46 *69:188 io_oeb[21] 29.3343 
47 *69:188 *69:200 22.7961 
48 *69:200 *69:202 300.295 
49 *69:202 *69:206 14.6968 
50 *69:206 io_oeb[20] 28.63 
51 *69:206 *69:216 336.027 
52 *69:216 *69:218 15 
53 *69:218 *69:222 15.8493 
54 *69:222 *69:224 336.027 
55 *69:224 io_oeb[18] 29.3343 
56 *69:224 *69:236 15.1732 
57 *69:236 *69:238 321.973 
58 *69:238 io_oeb[17] 28.9821 
59 *69:218 io_oeb[19] 13.63 
60 *69:182 io_oeb[22] 13.63 
61 *69:176 io_oeb[23] 18.4771 
62 *69:168 io_oeb[24] 10.5611 
*END

*D_NET *70 0.334332
*CONN
*P io_out[0] O
*I *427:product[0] O *D booth8
*CAP
1 io_out[0] 0.00165415
2 *427:product[0] 0.00226031
3 *70:13 0.160576
4 *70:11 0.161182
5 io_out[0] *75:25 0.000370052
6 *70:11 *78:9 0.00318792
7 *70:13 *427:rst 0.00085646
8 *427:multiplicand[4] *70:11 9.75158e-06
9 *31:9 io_out[0] 0.00211487
10 *33:15 io_out[0] 0.00212013
11 *35:19 io_out[0] 0
*RES
1 *427:product[0] *70:11 26.4104 
2 *70:11 *70:13 533.46 
3 *70:13 io_out[0] 24.1256 
*END

*D_NET *71 0.509597
*CONN
*P io_out[10] O
*I *427:product[10] O *D booth8
*CAP
1 io_out[10] 0.15512
2 *427:product[10] 7.44601e-05
3 *71:11 0.15512
4 *71:9 0.0996043
5 *71:7 0.0996788
*RES
1 *427:product[10] *71:7 1.86429 
2 *71:7 *71:9 2308.79 
3 *71:9 *71:11 8 
4 *71:11 io_out[10] 531.586 
*END

*D_NET *72 1.04094
*CONN
*P io_out[11] O
*I *427:product[11] O *D booth8
*CAP
1 io_out[11] 0.000920679
2 *427:product[11] 0.00066426
3 *72:17 0.0425957
4 *72:15 0.0416751
5 *72:13 0.0480881
6 *72:11 0.0487523
7 *72:13 *85:13 0.278822
8 *72:17 *85:17 0.0777501
9 wbs_dat_o[4] *72:11 0
10 *31:9 *72:17 0.0334775
11 *33:9 *72:17 0.00229305
12 *34:9 *72:17 0.0540541
13 *34:13 *72:13 0.278731
14 *65:9 *72:17 0.11035
15 *68:522 *72:17 0.00568282
16 *68:524 *72:17 0.00756672
17 *68:526 *72:17 0.00762361
18 *68:528 *72:17 0.00189479
*RES
1 *427:product[11] *72:11 21.2779 
2 *72:11 *72:13 515.599 
3 *72:13 *72:15 8 
4 *72:15 *72:17 2713.05 
5 *72:17 io_out[11] 10.8187 
*END

*D_NET *73 0.554931
*CONN
*P io_out[12] O
*I *427:product[12] O *D booth8
*CAP
1 io_out[12] 0.154007
2 *427:product[12] 7.44601e-05
3 *73:11 0.154007
4 *73:9 0.123384
5 *73:7 0.123458
*RES
1 *427:product[12] *73:7 1.86429 
2 *73:7 *73:9 2858.84 
3 *73:9 *73:11 8 
4 *73:11 io_out[12] 516.559 
*END

*D_NET *74 0.680802
*CONN
*P io_out[13] O
*I *427:product[13] O *D booth8
*CAP
1 io_out[13] 0.149395
2 *427:product[13] 0.000702636
3 *74:11 0.149395
4 *74:9 0.150184
5 *74:7 0.150887
6 *74:9 *79:9 0.00252298
7 *74:9 *82:9 0.0777151
*RES
1 *427:product[13] *74:7 10.604 
2 *74:7 *74:9 583.442 
3 *74:9 *74:11 8 
4 *74:11 io_out[13] 511.965 
*END

*D_NET *75 1.05574
*CONN
*P io_out[14] O
*I *427:product[14] O *D booth8
*CAP
1 io_out[14] 0.000973313
2 *427:product[14] 0.00208797
3 *75:25 0.0912311
4 *75:23 0.0902578
5 *75:21 0.0899015
6 *75:19 0.0899015
7 *75:17 0.00208797
8 *75:17 *76:17 0.000170049
9 *75:17 *80:13 0.000493819
10 *75:17 *85:11 0
11 *75:21 *76:17 0.000540825
12 *75:21 *76:21 0.24369
13 *75:25 *80:17 0.0562739
14 io_out[0] *75:25 0.000370052
15 wbs_dat_o[1] *75:17 0
16 wbs_dat_o[3] *75:17 0
17 *31:9 *75:25 0.0012101
18 *33:9 *75:25 0.0815392
19 *34:9 *75:25 0.251351
20 *34:13 *75:17 0.00556725
21 *41:13 *75:17 0.000349085
22 *52:13 *75:17 0.000383792
23 *52:13 *75:21 0.0473574
24 *68:516 *75:25 0
25 *68:518 *75:25 0
*RES
1 *427:product[14] *75:17 43.3086 
2 *75:17 *75:19 15 
3 *75:19 *75:21 2876.34 
4 *75:21 *75:23 15 
5 *75:23 *75:25 3534.78 
6 *75:25 io_out[14] 11.0763 
*END

*D_NET *76 0.823442
*CONN
*P io_out[15] O
*I *427:product[15] O *D booth8
*CAP
1 io_out[15] 0.15707
2 *427:product[15] 0.00296344
3 *76:23 0.15707
4 *76:21 0.0796713
5 *76:19 0.0796713
6 *76:17 0.00296344
7 wbs_dat_o[4] *76:17 9.85586e-06
8 *52:13 *76:17 0.00530653
9 *52:13 *76:21 0.094316
10 *75:17 *76:17 0.000170049
11 *75:21 *76:17 0.000540825
12 *75:21 *76:21 0.24369
*RES
1 *427:product[15] *76:17 37.7255 
2 *76:17 *76:19 15 
3 *76:19 *76:21 2664.81 
4 *76:21 *76:23 15 
5 *76:23 io_out[15] 3637.18 
*END

*D_NET *77 0.554126
*CONN
*P io_out[16] O
*I *427:done O *D booth8
*CAP
1 io_out[16] 0.152821
2 *427:done 0.124243
3 *77:7 0.152821
4 *77:5 0.124243
*RES
1 *427:done *77:5 416.524 
2 *77:5 *77:7 8 
3 *77:7 io_out[16] 3539.81 
*END

*D_NET *78 0.357798
*CONN
*P io_out[1] O
*I *427:product[1] O *D booth8
*CAP
1 io_out[1] 0.160513
2 *427:product[1] 0.000937408
3 *78:11 0.160513
4 *78:9 0.0139231
5 *78:7 0.0148605
6 *427:multiplicand[4] *78:9 0.00316638
7 *427:multiplier[3] *78:9 0.000696559
8 *70:11 *78:9 0.00318792
*RES
1 *427:product[1] *78:7 10.9475 
2 *78:7 *78:9 48.4176 
3 *78:9 *78:11 8 
4 *78:11 io_out[1] 536.351 
*END

*D_NET *79 0.373044
*CONN
*P io_out[2] O
*I *427:product[2] O *D booth8
*CAP
1 io_out[2] 0.152857
2 *427:product[2] 0.000806978
3 *79:11 0.152857
4 *79:9 0.0163947
5 *79:7 0.0172016
6 *79:9 *82:9 0.0304035
7 *74:9 *79:9 0.00252298
*RES
1 *427:product[2] *79:7 10.9475 
2 *79:7 *79:9 83.0704 
3 *79:9 *79:11 8 
4 *79:11 io_out[2] 511.622 
*END

*D_NET *80 0.780054
*CONN
*P io_out[3] O
*I *427:product[3] O *D booth8
*CAP
1 io_out[3] 0.00118239
2 *427:product[3] 0.000518853
3 *80:17 0.0148098
4 *80:15 0.0136274
5 *80:13 0.0486496
6 *80:11 0.0491685
7 *80:13 *85:13 0.000103479
8 *31:9 *80:17 0.000929426
9 *33:9 *80:17 0.0127441
10 *33:15 *80:17 0.000511463
11 *34:9 *80:17 6.15606e-05
12 *41:13 *80:13 0.280731
13 *52:9 *80:17 0.0181088
14 *52:13 *80:13 0.282139
15 *75:17 *80:13 0.000493819
16 *75:25 *80:17 0.0562739
*RES
1 *427:product[3] *80:11 19.165 
2 *80:11 *80:13 521.868 
3 *80:13 *80:15 8 
4 *80:15 *80:17 716.404 
5 *80:17 io_out[3] 11.1621 
*END

*D_NET *81 0.469131
*CONN
*P io_out[4] O
*I *427:product[4] O *D booth8
*CAP
1 io_out[4] 0.160312
2 *427:product[4] 0.00088227
3 *81:11 0.160312
4 *81:9 0.0115596
5 *81:7 0.0124419
6 *62:9 *81:9 0.0594948
7 *63:9 *81:9 0.0641279
*RES
1 *427:product[4] *81:7 10.6469 
2 *81:7 *81:9 824.159 
3 *81:9 *81:11 8 
4 *81:11 io_out[4] 536.051 
*END

*D_NET *82 0.464905
*CONN
*P io_out[5] O
*I *427:product[5] O *D booth8
*CAP
1 io_out[5] 0.149518
2 *427:product[5] 0.000783723
3 *82:11 0.149518
4 *82:9 0.0280915
5 *82:7 0.0288752
6 *74:9 *82:9 0.0777151
7 *79:9 *82:9 0.0304035
*RES
1 *427:product[5] *82:7 10.7757 
2 *82:7 *82:9 183.221 
3 *82:9 *82:11 8 
4 *82:11 io_out[5] 511.793 
*END

*D_NET *83 0.412452
*CONN
*P io_out[6] O
*I *427:product[6] O *D booth8
*CAP
1 io_out[6] 0.154001
2 *427:product[6] 7.44601e-05
3 *83:11 0.154001
4 *83:9 0.0521501
5 *83:7 0.0522246
*RES
1 *427:product[6] *83:7 1.86429 
2 *83:7 *83:9 1207.99 
3 *83:9 *83:11 8 
4 *83:11 io_out[6] 527.378 
*END

*D_NET *84 0.445463
*CONN
*P io_out[7] O
*I *427:product[7] O *D booth8
*CAP
1 io_out[7] 0.15693
2 *427:product[7] 7.96822e-05
3 *84:11 0.15693
4 *84:9 0.0657214
5 *84:7 0.0658011
*RES
1 *427:product[7] *84:7 1.86429 
2 *84:7 *84:9 1483.37 
3 *84:9 *84:11 8 
4 *84:11 io_out[7] 525.575 
*END

*D_NET *85 0.960319
*CONN
*P io_out[8] O
*I *427:product[8] O *D booth8
*CAP
1 io_out[8] 0.000875961
2 *427:product[8] 0.000609323
3 *85:17 0.0266948
4 *85:15 0.0258189
5 *85:13 0.0484242
6 *85:11 0.0490335
7 *31:9 *85:17 0.00679051
8 *34:13 *85:13 0.000702352
9 *41:13 *85:13 0.27975
10 *64:9 *85:17 0.0168987
11 *68:528 *85:17 0.0162547
12 *68:530 *85:17 0.0216394
13 *68:532 *85:17 0.0162521
14 *68:534 *85:17 0.0162521
15 *68:536 *85:17 0.0162518
16 *68:538 *85:17 0.0162518
17 *68:540 *85:17 0.0162549
18 *68:542 *85:17 0.0162564
19 *68:544 *85:17 0.0120973
20 *68:550 *85:17 0.000534968
21 *72:13 *85:13 0.278822
22 *72:17 *85:17 0.0777501
23 *75:17 *85:11 0
24 *80:13 *85:13 0.000103479
*RES
1 *427:product[8] *85:11 20.5736 
2 *85:11 *85:13 518.175 
3 *85:13 *85:15 8 
4 *85:15 *85:17 1886.93 
5 *85:17 io_out[8] 10.6469 
*END

*D_NET *86 0.702477
*CONN
*P io_out[9] O
*I *427:product[9] O *D booth8
*CAP
1 io_out[9] 0.16001
2 *427:product[9] 0.000734336
3 *86:11 0.16001
4 *86:9 0.0309265
5 *86:7 0.0316608
6 *32:9 *86:9 0.16349
7 *63:9 *86:9 0.0013472
8 *67:9 *86:9 0.154298
*RES
1 *427:product[9] *86:7 10.3893 
2 *86:7 *86:9 2101.03 
3 *86:9 *86:11 8 
4 *86:11 io_out[9] 535.793 
*END

*D_NET *352 0.0190508
*CONN
*P wb_clk_i I
*I *427:clk I *D booth8
*CAP
1 wb_clk_i 0.00704616
2 *427:clk 0.000820873
3 *352:11 0.00786704
4 *34:13 *352:11 0.00331668
*RES
1 wb_clk_i *352:11 44.6446 
2 *352:11 *427:clk 16.5714 
*END

*D_NET *353 0.0180713
*CONN
*P wb_rst_i I
*I *427:rst I *D booth8
*CAP
1 wb_rst_i 0.00564173
2 *427:rst 0.00296568
3 *353:5 0.00860741
4 *70:13 *427:rst 0.00085646
*RES
1 wb_rst_i *353:5 126.844 
2 *353:5 *427:rst 17.688 
*END
