*SPEF "ieee 1481-1999"
*DESIGN "booth8_chip"
*DATE "11:11:11 Fri 11 11, 1111"
*VENDOR "OpenRCX"
*PROGRAM "Parallel Extraction"
*VERSION "1.0"
*DESIGN_FLOW "NAME_SCOPE LOCAL" "PIN_CAP NONE"
*DIVIDER /
*DELIMITER :
*BUS_DELIMITER []
*T_UNIT 1 NS
*C_UNIT 1 PF
*R_UNIT 1 OHM
*L_UNIT 1 HENRY

*NAME_MAP
*3 clk
*4 done
*5 multiplicand[0]
*6 multiplicand[1]
*7 multiplicand[2]
*8 multiplicand[3]
*9 multiplicand[4]
*10 multiplicand[5]
*11 multiplicand[6]
*12 multiplicand[7]
*13 multiplier[0]
*14 multiplier[1]
*15 multiplier[2]
*16 multiplier[3]
*17 multiplier[4]
*18 multiplier[5]
*19 multiplier[6]
*20 multiplier[7]
*21 product[0]
*22 product[10]
*23 product[11]
*24 product[12]
*25 product[13]
*26 product[14]
*27 product[15]
*28 product[1]
*29 product[2]
*30 product[3]
*31 product[4]
*32 product[5]
*33 product[6]
*34 product[7]
*35 product[8]
*36 product[9]
*37 rst
*38 start
*39 _000_
*40 _001_
*41 _002_
*42 _003_
*43 _004_
*44 _005_
*45 _006_
*46 _007_
*47 _008_
*48 _009_
*49 _010_
*50 _011_
*51 _012_
*52 _013_
*53 _014_
*54 _015_
*55 _016_
*56 _017_
*57 _018_
*58 _019_
*59 _020_
*60 _021_
*61 _022_
*62 _023_
*63 _024_
*64 _025_
*65 _026_
*66 _027_
*67 _028_
*68 _029_
*69 _030_
*70 _031_
*71 _032_
*72 _033_
*73 _034_
*74 _035_
*75 _036_
*76 _037_
*77 _038_
*78 _039_
*79 _040_
*80 _041_
*81 _042_
*82 _043_
*83 _044_
*84 _045_
*85 _046_
*86 _047_
*87 _048_
*88 _049_
*89 _050_
*90 _051_
*91 _052_
*92 _053_
*93 _054_
*94 _055_
*95 _056_
*96 _057_
*97 _058_
*98 _059_
*99 _060_
*100 _061_
*101 _062_
*102 _063_
*103 _064_
*104 _065_
*105 _066_
*106 _067_
*107 _068_
*108 _069_
*109 _070_
*110 _071_
*111 _072_
*112 _073_
*113 _074_
*114 _075_
*115 _076_
*116 _077_
*117 _078_
*118 _079_
*119 _080_
*120 _081_
*121 _082_
*122 _083_
*123 _084_
*124 _085_
*125 _086_
*126 _087_
*127 _088_
*128 _089_
*129 _090_
*130 _091_
*131 _092_
*132 _093_
*133 _094_
*134 _095_
*135 _096_
*136 _097_
*137 _098_
*138 _099_
*139 _100_
*140 _101_
*141 _102_
*142 _103_
*143 _104_
*144 _105_
*145 _106_
*146 _107_
*147 _108_
*148 _109_
*149 _110_
*150 _111_
*151 _112_
*152 _113_
*153 _114_
*154 _115_
*155 _116_
*156 _117_
*157 _118_
*158 _119_
*159 _120_
*160 _121_
*161 _122_
*162 _123_
*163 _124_
*164 _125_
*165 _126_
*166 _127_
*167 _128_
*168 _129_
*169 _130_
*170 _131_
*171 _132_
*172 _133_
*173 _134_
*174 _135_
*175 _136_
*176 _137_
*177 _138_
*178 _139_
*179 _140_
*180 _141_
*181 _142_
*182 _143_
*183 _144_
*184 _145_
*185 _146_
*186 _147_
*187 _148_
*188 _149_
*189 _150_
*190 _151_
*191 _152_
*192 _153_
*193 _154_
*194 _155_
*195 _156_
*196 _157_
*197 _158_
*198 _159_
*199 _160_
*200 _161_
*201 _162_
*202 _163_
*203 _164_
*204 _165_
*205 _166_
*206 _167_
*207 _168_
*208 _169_
*209 _170_
*210 _171_
*211 _172_
*212 _173_
*213 _174_
*214 _175_
*215 _176_
*216 _177_
*217 _178_
*218 _179_
*219 _180_
*220 _181_
*221 _182_
*222 _183_
*223 _184_
*224 _185_
*225 _186_
*226 _187_
*227 _188_
*228 _189_
*229 _190_
*230 _191_
*231 _192_
*232 _193_
*233 _194_
*234 _195_
*235 _196_
*236 _197_
*237 _198_
*238 _199_
*239 _200_
*240 _201_
*241 _202_
*242 _203_
*243 _204_
*244 _205_
*245 _206_
*246 _207_
*247 _208_
*248 _209_
*249 _210_
*250 _211_
*251 _212_
*252 _213_
*253 _214_
*254 _215_
*255 _216_
*256 _217_
*257 _218_
*258 _219_
*259 _220_
*260 _221_
*261 _222_
*262 _223_
*263 _224_
*264 _225_
*265 _226_
*266 _227_
*267 _228_
*268 _229_
*269 _230_
*270 _231_
*271 _232_
*272 _233_
*273 _234_
*274 _235_
*275 _236_
*276 _237_
*277 _238_
*278 _239_
*279 _240_
*280 _241_
*281 _242_
*282 _243_
*283 _244_
*284 _245_
*285 _246_
*286 _247_
*287 _248_
*288 _249_
*289 _250_
*290 _251_
*291 _252_
*292 _253_
*293 _254_
*294 _255_
*295 _256_
*296 _257_
*297 _258_
*298 _259_
*299 _260_
*300 _261_
*301 _262_
*302 _263_
*303 _264_
*304 _265_
*305 _266_
*306 _267_
*307 _268_
*308 _269_
*309 _270_
*310 _271_
*311 _272_
*312 _273_
*313 _274_
*314 _275_
*315 _276_
*316 _277_
*317 _278_
*318 _279_
*319 _280_
*320 _281_
*321 _282_
*322 _283_
*323 _284_
*324 _285_
*325 _286_
*326 _287_
*327 _288_
*328 _289_
*329 _290_
*330 _291_
*331 _292_
*332 _293_
*333 _294_
*334 _295_
*335 _296_
*336 _297_
*337 _298_
*338 _299_
*339 _300_
*340 _301_
*341 _302_
*342 _303_
*343 _304_
*344 _305_
*345 _306_
*346 _307_
*347 _308_
*348 _309_
*349 _310_
*350 _311_
*351 _312_
*352 _313_
*353 _314_
*354 _315_
*355 _316_
*356 _317_
*357 _318_
*358 _319_
*359 _320_
*360 _321_
*361 _322_
*362 _323_
*363 _324_
*364 _325_
*365 _326_
*366 _327_
*367 _328_
*368 _329_
*369 _330_
*370 _331_
*371 _332_
*372 _333_
*373 _334_
*374 _335_
*375 _336_
*376 _337_
*377 _338_
*378 _339_
*379 _340_
*380 _341_
*381 _342_
*382 _343_
*383 _344_
*384 _345_
*385 _346_
*386 clknet_0_clk
*387 clknet_2_0__leaf_clk
*388 clknet_2_1__leaf_clk
*389 clknet_2_2__leaf_clk
*390 clknet_2_3__leaf_clk
*391 net1
*392 net10
*393 net11
*394 net12
*395 net13
*396 net14
*397 net15
*398 net16
*399 net17
*400 net18
*401 net19
*402 net2
*403 net20
*404 net21
*405 net22
*406 net23
*407 net24
*408 net25
*409 net26
*410 net27
*411 net28
*412 net29
*413 net3
*414 net30
*415 net31
*416 net32
*417 net33
*418 net34
*419 net35
*420 net36
*421 net37
*422 net38
*423 net39
*424 net4
*425 net40
*426 net41
*427 net42
*428 net43
*429 net44
*430 net45
*431 net46
*432 net47
*433 net48
*434 net49
*435 net5
*436 net50
*437 net51
*438 net52
*439 net53
*440 net54
*441 net55
*442 net56
*443 net57
*444 net58
*445 net59
*446 net6
*447 net60
*448 net61
*449 net62
*450 net63
*451 net64
*452 net65
*453 net66
*454 net67
*455 net68
*456 net69
*457 net7
*458 net70
*459 net8
*460 net9
*461 u_core\.A\[0\]
*462 u_core\.A\[10\]
*463 u_core\.A\[11\]
*464 u_core\.A\[12\]
*465 u_core\.A\[13\]
*466 u_core\.A\[14\]
*467 u_core\.A\[1\]
*468 u_core\.A\[2\]
*469 u_core\.A\[3\]
*470 u_core\.A\[4\]
*471 u_core\.A\[5\]
*472 u_core\.A\[6\]
*473 u_core\.A\[7\]
*474 u_core\.A\[8\]
*475 u_core\.A\[9\]
*476 u_core\.M\[0\]
*477 u_core\.M\[1\]
*478 u_core\.M\[2\]
*479 u_core\.M\[3\]
*480 u_core\.M\[4\]
*481 u_core\.M\[5\]
*482 u_core\.M\[6\]
*483 u_core\.M\[7\]
*484 u_core\.Q\[0\]
*485 u_core\.Q\[1\]
*486 u_core\.Q\[2\]
*487 u_core\.Q\[3\]
*488 u_core\.Q\[4\]
*489 u_core\.Q\[5\]
*490 u_core\.Q\[6\]
*491 u_core\.Q\[7\]
*492 u_core\.Q_1
*493 u_core\.busy
*494 u_core\.count\[0\]
*495 u_core\.count\[1\]
*496 u_core\.count\[2\]
*497 u_core\.count\[3\]
*498 ANTENNA_1
*499 FILLER_0_0_10
*500 FILLER_0_0_105
*501 FILLER_0_0_111
*502 FILLER_0_0_113
*503 FILLER_0_0_125
*504 FILLER_0_0_13
*505 FILLER_0_0_132
*506 FILLER_0_0_144
*507 FILLER_0_0_156
*508 FILLER_0_0_163
*509 FILLER_0_0_167
*510 FILLER_0_0_169
*511 FILLER_0_0_181
*512 FILLER_0_0_189
*513 FILLER_0_0_195
*514 FILLER_0_0_197
*515 FILLER_0_0_209
*516 FILLER_0_0_21
*517 FILLER_0_0_215
*518 FILLER_0_0_27
*519 FILLER_0_0_29
*520 FILLER_0_0_41
*521 FILLER_0_0_49
*522 FILLER_0_0_55
*523 FILLER_0_0_57
*524 FILLER_0_0_6
*525 FILLER_0_0_69
*526 FILLER_0_0_76
*527 FILLER_0_0_85
*528 FILLER_0_0_97
*529 FILLER_0_10_118
*530 FILLER_0_10_126
*531 FILLER_0_10_131
*532 FILLER_0_10_156
*533 FILLER_0_10_161
*534 FILLER_0_10_169
*535 FILLER_0_10_181
*536 FILLER_0_10_186
*537 FILLER_0_10_194
*538 FILLER_0_10_197
*539 FILLER_0_10_209
*540 FILLER_0_10_217
*541 FILLER_0_10_29
*542 FILLER_0_10_3
*543 FILLER_0_10_38
*544 FILLER_0_10_50
*545 FILLER_0_10_58
*546 FILLER_0_10_85
*547 FILLER_0_10_93
*548 FILLER_0_11_105
*549 FILLER_0_11_113
*550 FILLER_0_11_132
*551 FILLER_0_11_147
*552 FILLER_0_11_155
*553 FILLER_0_11_167
*554 FILLER_0_11_169
*555 FILLER_0_11_18
*556 FILLER_0_11_198
*557 FILLER_0_11_210
*558 FILLER_0_11_22
*559 FILLER_0_11_48
*560 FILLER_0_11_57
*561 FILLER_0_11_65
*562 FILLER_0_11_77
*563 FILLER_0_11_89
*564 FILLER_0_11_97
*565 FILLER_0_12_100
*566 FILLER_0_12_106
*567 FILLER_0_12_112
*568 FILLER_0_12_120
*569 FILLER_0_12_132
*570 FILLER_0_12_141
*571 FILLER_0_12_15
*572 FILLER_0_12_150
*573 FILLER_0_12_156
*574 FILLER_0_12_160
*575 FILLER_0_12_169
*576 FILLER_0_12_177
*577 FILLER_0_12_185
*578 FILLER_0_12_193
*579 FILLER_0_12_197
*580 FILLER_0_12_201
*581 FILLER_0_12_213
*582 FILLER_0_12_27
*583 FILLER_0_12_29
*584 FILLER_0_12_3
*585 FILLER_0_12_43
*586 FILLER_0_12_78
*587 FILLER_0_13_102
*588 FILLER_0_13_110
*589 FILLER_0_13_113
*590 FILLER_0_13_117
*591 FILLER_0_13_124
*592 FILLER_0_13_133
*593 FILLER_0_13_14
*594 FILLER_0_13_149
*595 FILLER_0_13_209
*596 FILLER_0_13_217
*597 FILLER_0_13_26
*598 FILLER_0_13_3
*599 FILLER_0_13_38
*600 FILLER_0_13_50
*601 FILLER_0_13_57
*602 FILLER_0_13_75
*603 FILLER_0_13_87
*604 FILLER_0_13_93
*605 FILLER_0_14_109
*606 FILLER_0_14_128
*607 FILLER_0_14_134
*608 FILLER_0_14_141
*609 FILLER_0_14_147
*610 FILLER_0_14_166
*611 FILLER_0_14_178
*612 FILLER_0_14_189
*613 FILLER_0_14_195
*614 FILLER_0_14_197
*615 FILLER_0_14_205
*616 FILLER_0_14_211
*617 FILLER_0_14_27
*618 FILLER_0_14_3
*619 FILLER_0_14_56
*620 FILLER_0_14_67
*621 FILLER_0_14_80
*622 FILLER_0_14_91
*623 FILLER_0_15_107
*624 FILLER_0_15_111
*625 FILLER_0_15_113
*626 FILLER_0_15_140
*627 FILLER_0_15_15
*628 FILLER_0_15_152
*629 FILLER_0_15_164
*630 FILLER_0_15_169
*631 FILLER_0_15_181
*632 FILLER_0_15_193
*633 FILLER_0_15_27
*634 FILLER_0_15_3
*635 FILLER_0_15_49
*636 FILLER_0_15_55
*637 FILLER_0_15_57
*638 FILLER_0_15_80
*639 FILLER_0_15_88
*640 FILLER_0_16_104
*641 FILLER_0_16_116
*642 FILLER_0_16_133
*643 FILLER_0_16_141
*644 FILLER_0_16_153
*645 FILLER_0_16_159
*646 FILLER_0_16_164
*647 FILLER_0_16_176
*648 FILLER_0_16_188
*649 FILLER_0_16_197
*650 FILLER_0_16_208
*651 FILLER_0_16_21
*652 FILLER_0_16_212
*653 FILLER_0_16_27
*654 FILLER_0_16_29
*655 FILLER_0_16_41
*656 FILLER_0_16_53
*657 FILLER_0_16_65
*658 FILLER_0_16_74
*659 FILLER_0_16_92
*660 FILLER_0_17_101
*661 FILLER_0_17_125
*662 FILLER_0_17_135
*663 FILLER_0_17_147
*664 FILLER_0_17_159
*665 FILLER_0_17_176
*666 FILLER_0_17_182
*667 FILLER_0_17_202
*668 FILLER_0_17_217
*669 FILLER_0_17_3
*670 FILLER_0_17_51
*671 FILLER_0_17_55
*672 FILLER_0_17_57
*673 FILLER_0_17_63
*674 FILLER_0_17_77
*675 FILLER_0_17_89
*676 FILLER_0_18_101
*677 FILLER_0_18_11
*678 FILLER_0_18_128
*679 FILLER_0_18_141
*680 FILLER_0_18_153
*681 FILLER_0_18_159
*682 FILLER_0_18_166
*683 FILLER_0_18_174
*684 FILLER_0_18_217
*685 FILLER_0_18_23
*686 FILLER_0_18_27
*687 FILLER_0_18_29
*688 FILLER_0_18_3
*689 FILLER_0_18_41
*690 FILLER_0_18_53
*691 FILLER_0_18_65
*692 FILLER_0_18_7
*693 FILLER_0_18_77
*694 FILLER_0_18_83
*695 FILLER_0_18_85
*696 FILLER_0_18_97
*697 FILLER_0_19_111
*698 FILLER_0_19_113
*699 FILLER_0_19_119
*700 FILLER_0_19_128
*701 FILLER_0_19_136
*702 FILLER_0_19_15
*703 FILLER_0_19_169
*704 FILLER_0_19_181
*705 FILLER_0_19_207
*706 FILLER_0_19_217
*707 FILLER_0_19_27
*708 FILLER_0_19_3
*709 FILLER_0_19_31
*710 FILLER_0_19_65
*711 FILLER_0_19_69
*712 FILLER_0_19_75
*713 FILLER_0_19_87
*714 FILLER_0_1_110
*715 FILLER_0_1_113
*716 FILLER_0_1_121
*717 FILLER_0_1_150
*718 FILLER_0_1_154
*719 FILLER_0_1_158
*720 FILLER_0_1_164
*721 FILLER_0_1_178
*722 FILLER_0_1_18
*723 FILLER_0_1_190
*724 FILLER_0_1_202
*725 FILLER_0_1_214
*726 FILLER_0_1_30
*727 FILLER_0_1_42
*728 FILLER_0_1_54
*729 FILLER_0_1_57
*730 FILLER_0_1_6
*731 FILLER_0_1_65
*732 FILLER_0_1_73
*733 FILLER_0_1_85
*734 FILLER_0_1_89
*735 FILLER_0_20_108
*736 FILLER_0_20_116
*737 FILLER_0_20_138
*738 FILLER_0_20_14
*739 FILLER_0_20_141
*740 FILLER_0_20_147
*741 FILLER_0_20_164
*742 FILLER_0_20_176
*743 FILLER_0_20_202
*744 FILLER_0_20_206
*745 FILLER_0_20_210
*746 FILLER_0_20_27
*747 FILLER_0_20_29
*748 FILLER_0_20_33
*749 FILLER_0_20_57
*750 FILLER_0_20_6
*751 FILLER_0_20_81
*752 FILLER_0_20_88
*753 FILLER_0_20_96
*754 FILLER_0_21_108
*755 FILLER_0_21_113
*756 FILLER_0_21_117
*757 FILLER_0_21_144
*758 FILLER_0_21_156
*759 FILLER_0_21_164
*760 FILLER_0_21_169
*761 FILLER_0_21_181
*762 FILLER_0_21_193
*763 FILLER_0_21_205
*764 FILLER_0_21_213
*765 FILLER_0_21_3
*766 FILLER_0_21_33
*767 FILLER_0_21_48
*768 FILLER_0_21_70
*769 FILLER_0_21_95
*770 FILLER_0_22_105
*771 FILLER_0_22_124
*772 FILLER_0_22_132
*773 FILLER_0_22_148
*774 FILLER_0_22_15
*775 FILLER_0_22_156
*776 FILLER_0_22_169
*777 FILLER_0_22_177
*778 FILLER_0_22_184
*779 FILLER_0_22_27
*780 FILLER_0_22_29
*781 FILLER_0_22_3
*782 FILLER_0_22_35
*783 FILLER_0_22_39
*784 FILLER_0_22_51
*785 FILLER_0_22_59
*786 FILLER_0_22_65
*787 FILLER_0_22_73
*788 FILLER_0_22_80
*789 FILLER_0_22_85
*790 FILLER_0_23_104
*791 FILLER_0_23_113
*792 FILLER_0_23_129
*793 FILLER_0_23_141
*794 FILLER_0_23_15
*795 FILLER_0_23_153
*796 FILLER_0_23_165
*797 FILLER_0_23_181
*798 FILLER_0_23_189
*799 FILLER_0_23_197
*800 FILLER_0_23_3
*801 FILLER_0_23_50
*802 FILLER_0_23_60
*803 FILLER_0_23_66
*804 FILLER_0_23_71
*805 FILLER_0_23_81
*806 FILLER_0_23_89
*807 FILLER_0_24_13
*808 FILLER_0_24_134
*809 FILLER_0_24_148
*810 FILLER_0_24_180
*811 FILLER_0_24_197
*812 FILLER_0_24_202
*813 FILLER_0_24_213
*814 FILLER_0_24_22
*815 FILLER_0_24_29
*816 FILLER_0_24_3
*817 FILLER_0_24_41
*818 FILLER_0_24_49
*819 FILLER_0_24_70
*820 FILLER_0_24_83
*821 FILLER_0_24_85
*822 FILLER_0_24_9
*823 FILLER_0_24_93
*824 FILLER_0_25_100
*825 FILLER_0_25_113
*826 FILLER_0_25_129
*827 FILLER_0_25_141
*828 FILLER_0_25_149
*829 FILLER_0_25_159
*830 FILLER_0_25_167
*831 FILLER_0_25_169
*832 FILLER_0_25_174
*833 FILLER_0_25_217
*834 FILLER_0_25_3
*835 FILLER_0_25_33
*836 FILLER_0_25_37
*837 FILLER_0_25_48
*838 FILLER_0_25_62
*839 FILLER_0_25_70
*840 FILLER_0_25_93
*841 FILLER_0_26_109
*842 FILLER_0_26_119
*843 FILLER_0_26_129
*844 FILLER_0_26_137
*845 FILLER_0_26_141
*846 FILLER_0_26_17
*847 FILLER_0_26_171
*848 FILLER_0_26_183
*849 FILLER_0_26_191
*850 FILLER_0_26_195
*851 FILLER_0_26_197
*852 FILLER_0_26_205
*853 FILLER_0_26_211
*854 FILLER_0_26_215
*855 FILLER_0_26_52
*856 FILLER_0_26_64
*857 FILLER_0_26_72
*858 FILLER_0_26_80
*859 FILLER_0_26_85
*860 FILLER_0_26_9
*861 FILLER_0_26_97
*862 FILLER_0_27_110
*863 FILLER_0_27_113
*864 FILLER_0_27_125
*865 FILLER_0_27_137
*866 FILLER_0_27_149
*867 FILLER_0_27_15
*868 FILLER_0_27_155
*869 FILLER_0_27_167
*870 FILLER_0_27_169
*871 FILLER_0_27_182
*872 FILLER_0_27_187
*873 FILLER_0_27_19
*874 FILLER_0_27_195
*875 FILLER_0_27_3
*876 FILLER_0_27_42
*877 FILLER_0_27_54
*878 FILLER_0_27_57
*879 FILLER_0_27_89
*880 FILLER_0_27_93
*881 FILLER_0_28_11
*882 FILLER_0_28_111
*883 FILLER_0_28_119
*884 FILLER_0_28_127
*885 FILLER_0_28_131
*886 FILLER_0_28_137
*887 FILLER_0_28_141
*888 FILLER_0_28_15
*889 FILLER_0_28_153
*890 FILLER_0_28_165
*891 FILLER_0_28_195
*892 FILLER_0_28_201
*893 FILLER_0_28_217
*894 FILLER_0_28_25
*895 FILLER_0_28_3
*896 FILLER_0_28_37
*897 FILLER_0_28_43
*898 FILLER_0_28_55
*899 FILLER_0_28_80
*900 FILLER_0_28_85
*901 FILLER_0_28_96
*902 FILLER_0_29_105
*903 FILLER_0_29_119
*904 FILLER_0_29_127
*905 FILLER_0_29_150
*906 FILLER_0_29_169
*907 FILLER_0_29_179
*908 FILLER_0_29_191
*909 FILLER_0_29_199
*910 FILLER_0_29_203
*911 FILLER_0_29_214
*912 FILLER_0_29_218
*913 FILLER_0_29_29
*914 FILLER_0_29_3
*915 FILLER_0_29_53
*916 FILLER_0_29_64
*917 FILLER_0_29_73
*918 FILLER_0_29_81
*919 FILLER_0_29_93
*920 FILLER_0_2_104
*921 FILLER_0_2_131
*922 FILLER_0_2_139
*923 FILLER_0_2_15
*924 FILLER_0_2_190
*925 FILLER_0_2_197
*926 FILLER_0_2_209
*927 FILLER_0_2_217
*928 FILLER_0_2_27
*929 FILLER_0_2_29
*930 FILLER_0_2_3
*931 FILLER_0_2_41
*932 FILLER_0_2_51
*933 FILLER_0_2_82
*934 FILLER_0_2_88
*935 FILLER_0_30_109
*936 FILLER_0_30_120
*937 FILLER_0_30_132
*938 FILLER_0_30_141
*939 FILLER_0_30_15
*940 FILLER_0_30_150
*941 FILLER_0_30_181
*942 FILLER_0_30_189
*943 FILLER_0_30_217
*944 FILLER_0_30_29
*945 FILLER_0_30_3
*946 FILLER_0_30_48
*947 FILLER_0_30_54
*948 FILLER_0_30_70
*949 FILLER_0_30_82
*950 FILLER_0_30_85
*951 FILLER_0_30_97
*952 FILLER_0_31_100
*953 FILLER_0_31_113
*954 FILLER_0_31_125
*955 FILLER_0_31_137
*956 FILLER_0_31_149
*957 FILLER_0_31_157
*958 FILLER_0_31_165
*959 FILLER_0_31_169
*960 FILLER_0_31_174
*961 FILLER_0_31_186
*962 FILLER_0_31_198
*963 FILLER_0_31_21
*964 FILLER_0_31_210
*965 FILLER_0_31_33
*966 FILLER_0_31_48
*967 FILLER_0_31_57
*968 FILLER_0_31_63
*969 FILLER_0_31_83
*970 FILLER_0_31_9
*971 FILLER_0_31_91
*972 FILLER_0_32_118
*973 FILLER_0_32_122
*974 FILLER_0_32_128
*975 FILLER_0_32_132
*976 FILLER_0_32_15
*977 FILLER_0_32_162
*978 FILLER_0_32_174
*979 FILLER_0_32_182
*980 FILLER_0_32_188
*981 FILLER_0_32_197
*982 FILLER_0_32_209
*983 FILLER_0_32_217
*984 FILLER_0_32_27
*985 FILLER_0_32_29
*986 FILLER_0_32_3
*987 FILLER_0_32_35
*988 FILLER_0_32_57
*989 FILLER_0_32_85
*990 FILLER_0_32_93
*991 FILLER_0_33_116
*992 FILLER_0_33_134
*993 FILLER_0_33_149
*994 FILLER_0_33_15
*995 FILLER_0_33_161
*996 FILLER_0_33_167
*997 FILLER_0_33_169
*998 FILLER_0_33_175
*999 FILLER_0_33_204
*1000 FILLER_0_33_21
*1001 FILLER_0_33_216
*1002 FILLER_0_33_3
*1003 FILLER_0_33_33
*1004 FILLER_0_33_45
*1005 FILLER_0_33_51
*1006 FILLER_0_33_55
*1007 FILLER_0_33_57
*1008 FILLER_0_33_69
*1009 FILLER_0_33_81
*1010 FILLER_0_33_87
*1011 FILLER_0_34_120
*1012 FILLER_0_34_132
*1013 FILLER_0_34_141
*1014 FILLER_0_34_15
*1015 FILLER_0_34_153
*1016 FILLER_0_34_165
*1017 FILLER_0_34_177
*1018 FILLER_0_34_189
*1019 FILLER_0_34_195
*1020 FILLER_0_34_197
*1021 FILLER_0_34_209
*1022 FILLER_0_34_217
*1023 FILLER_0_34_27
*1024 FILLER_0_34_29
*1025 FILLER_0_34_3
*1026 FILLER_0_34_41
*1027 FILLER_0_34_70
*1028 FILLER_0_34_83
*1029 FILLER_0_34_85
*1030 FILLER_0_34_97
*1031 FILLER_0_35_103
*1032 FILLER_0_35_111
*1033 FILLER_0_35_116
*1034 FILLER_0_35_124
*1035 FILLER_0_35_14
*1036 FILLER_0_35_156
*1037 FILLER_0_35_169
*1038 FILLER_0_35_181
*1039 FILLER_0_35_193
*1040 FILLER_0_35_205
*1041 FILLER_0_35_217
*1042 FILLER_0_35_26
*1043 FILLER_0_35_3
*1044 FILLER_0_35_38
*1045 FILLER_0_35_46
*1046 FILLER_0_35_52
*1047 FILLER_0_35_66
*1048 FILLER_0_35_7
*1049 FILLER_0_36_100
*1050 FILLER_0_36_113
*1051 FILLER_0_36_121
*1052 FILLER_0_36_125
*1053 FILLER_0_36_137
*1054 FILLER_0_36_141
*1055 FILLER_0_36_149
*1056 FILLER_0_36_153
*1057 FILLER_0_36_16
*1058 FILLER_0_36_165
*1059 FILLER_0_36_169
*1060 FILLER_0_36_177
*1061 FILLER_0_36_181
*1062 FILLER_0_36_193
*1063 FILLER_0_36_197
*1064 FILLER_0_36_205
*1065 FILLER_0_36_29
*1066 FILLER_0_36_37
*1067 FILLER_0_36_41
*1068 FILLER_0_36_53
*1069 FILLER_0_36_57
*1070 FILLER_0_36_65
*1071 FILLER_0_36_72
*1072 FILLER_0_36_85
*1073 FILLER_0_36_9
*1074 FILLER_0_36_93
*1075 FILLER_0_3_101
*1076 FILLER_0_3_111
*1077 FILLER_0_3_113
*1078 FILLER_0_3_128
*1079 FILLER_0_3_140
*1080 FILLER_0_3_144
*1081 FILLER_0_3_15
*1082 FILLER_0_3_156
*1083 FILLER_0_3_166
*1084 FILLER_0_3_180
*1085 FILLER_0_3_192
*1086 FILLER_0_3_204
*1087 FILLER_0_3_216
*1088 FILLER_0_3_27
*1089 FILLER_0_3_3
*1090 FILLER_0_3_70
*1091 FILLER_0_3_93
*1092 FILLER_0_4_109
*1093 FILLER_0_4_132
*1094 FILLER_0_4_15
*1095 FILLER_0_4_177
*1096 FILLER_0_4_189
*1097 FILLER_0_4_195
*1098 FILLER_0_4_197
*1099 FILLER_0_4_209
*1100 FILLER_0_4_217
*1101 FILLER_0_4_27
*1102 FILLER_0_4_29
*1103 FILLER_0_4_3
*1104 FILLER_0_4_41
*1105 FILLER_0_4_53
*1106 FILLER_0_4_57
*1107 FILLER_0_4_65
*1108 FILLER_0_4_71
*1109 FILLER_0_4_79
*1110 FILLER_0_4_83
*1111 FILLER_0_4_85
*1112 FILLER_0_4_97
*1113 FILLER_0_5_15
*1114 FILLER_0_5_153
*1115 FILLER_0_5_165
*1116 FILLER_0_5_177
*1117 FILLER_0_5_189
*1118 FILLER_0_5_201
*1119 FILLER_0_5_213
*1120 FILLER_0_5_27
*1121 FILLER_0_5_3
*1122 FILLER_0_5_39
*1123 FILLER_0_5_51
*1124 FILLER_0_5_55
*1125 FILLER_0_5_60
*1126 FILLER_0_5_66
*1127 FILLER_0_5_74
*1128 FILLER_0_5_78
*1129 FILLER_0_5_82
*1130 FILLER_0_5_90
*1131 FILLER_0_6_128
*1132 FILLER_0_6_141
*1133 FILLER_0_6_145
*1134 FILLER_0_6_153
*1135 FILLER_0_6_162
*1136 FILLER_0_6_171
*1137 FILLER_0_6_175
*1138 FILLER_0_6_197
*1139 FILLER_0_6_209
*1140 FILLER_0_6_21
*1141 FILLER_0_6_215
*1142 FILLER_0_6_25
*1143 FILLER_0_6_38
*1144 FILLER_0_6_46
*1145 FILLER_0_6_9
*1146 FILLER_0_7_100
*1147 FILLER_0_7_105
*1148 FILLER_0_7_111
*1149 FILLER_0_7_113
*1150 FILLER_0_7_125
*1151 FILLER_0_7_137
*1152 FILLER_0_7_149
*1153 FILLER_0_7_15
*1154 FILLER_0_7_161
*1155 FILLER_0_7_167
*1156 FILLER_0_7_169
*1157 FILLER_0_7_177
*1158 FILLER_0_7_183
*1159 FILLER_0_7_189
*1160 FILLER_0_7_197
*1161 FILLER_0_7_210
*1162 FILLER_0_7_218
*1163 FILLER_0_7_3
*1164 FILLER_0_7_47
*1165 FILLER_0_7_55
*1166 FILLER_0_7_57
*1167 FILLER_0_7_69
*1168 FILLER_0_7_96
*1169 FILLER_0_8_109
*1170 FILLER_0_8_121
*1171 FILLER_0_8_133
*1172 FILLER_0_8_139
*1173 FILLER_0_8_141
*1174 FILLER_0_8_15
*1175 FILLER_0_8_153
*1176 FILLER_0_8_167
*1177 FILLER_0_8_179
*1178 FILLER_0_8_195
*1179 FILLER_0_8_217
*1180 FILLER_0_8_27
*1181 FILLER_0_8_29
*1182 FILLER_0_8_3
*1183 FILLER_0_8_41
*1184 FILLER_0_8_46
*1185 FILLER_0_8_54
*1186 FILLER_0_8_71
*1187 FILLER_0_8_83
*1188 FILLER_0_8_85
*1189 FILLER_0_8_97
*1190 FILLER_0_9_101
*1191 FILLER_0_9_110
*1192 FILLER_0_9_113
*1193 FILLER_0_9_121
*1194 FILLER_0_9_145
*1195 FILLER_0_9_15
*1196 FILLER_0_9_151
*1197 FILLER_0_9_169
*1198 FILLER_0_9_181
*1199 FILLER_0_9_193
*1200 FILLER_0_9_205
*1201 FILLER_0_9_217
*1202 FILLER_0_9_27
*1203 FILLER_0_9_3
*1204 FILLER_0_9_33
*1205 FILLER_0_9_54
*1206 FILLER_0_9_57
*1207 FILLER_0_9_78
*1208 FILLER_0_9_90
*1209 FILLER_0_9_94
*1210 PHY_0
*1211 PHY_1
*1212 PHY_10
*1213 PHY_11
*1214 PHY_12
*1215 PHY_13
*1216 PHY_14
*1217 PHY_15
*1218 PHY_16
*1219 PHY_17
*1220 PHY_18
*1221 PHY_19
*1222 PHY_2
*1223 PHY_20
*1224 PHY_21
*1225 PHY_22
*1226 PHY_23
*1227 PHY_24
*1228 PHY_25
*1229 PHY_26
*1230 PHY_27
*1231 PHY_28
*1232 PHY_29
*1233 PHY_3
*1234 PHY_30
*1235 PHY_31
*1236 PHY_32
*1237 PHY_33
*1238 PHY_34
*1239 PHY_35
*1240 PHY_36
*1241 PHY_37
*1242 PHY_38
*1243 PHY_39
*1244 PHY_4
*1245 PHY_40
*1246 PHY_41
*1247 PHY_42
*1248 PHY_43
*1249 PHY_44
*1250 PHY_45
*1251 PHY_46
*1252 PHY_47
*1253 PHY_48
*1254 PHY_49
*1255 PHY_5
*1256 PHY_50
*1257 PHY_51
*1258 PHY_52
*1259 PHY_53
*1260 PHY_54
*1261 PHY_55
*1262 PHY_56
*1263 PHY_57
*1264 PHY_58
*1265 PHY_59
*1266 PHY_6
*1267 PHY_60
*1268 PHY_61
*1269 PHY_62
*1270 PHY_63
*1271 PHY_64
*1272 PHY_65
*1273 PHY_66
*1274 PHY_67
*1275 PHY_68
*1276 PHY_69
*1277 PHY_7
*1278 PHY_70
*1279 PHY_71
*1280 PHY_72
*1281 PHY_73
*1282 PHY_8
*1283 PHY_9
*1284 TAP_100
*1285 TAP_101
*1286 TAP_102
*1287 TAP_103
*1288 TAP_104
*1289 TAP_105
*1290 TAP_106
*1291 TAP_107
*1292 TAP_108
*1293 TAP_109
*1294 TAP_110
*1295 TAP_111
*1296 TAP_112
*1297 TAP_113
*1298 TAP_114
*1299 TAP_115
*1300 TAP_116
*1301 TAP_117
*1302 TAP_118
*1303 TAP_119
*1304 TAP_120
*1305 TAP_121
*1306 TAP_122
*1307 TAP_123
*1308 TAP_124
*1309 TAP_125
*1310 TAP_126
*1311 TAP_127
*1312 TAP_128
*1313 TAP_129
*1314 TAP_130
*1315 TAP_131
*1316 TAP_132
*1317 TAP_133
*1318 TAP_134
*1319 TAP_135
*1320 TAP_136
*1321 TAP_137
*1322 TAP_138
*1323 TAP_139
*1324 TAP_140
*1325 TAP_141
*1326 TAP_142
*1327 TAP_143
*1328 TAP_144
*1329 TAP_145
*1330 TAP_146
*1331 TAP_147
*1332 TAP_148
*1333 TAP_149
*1334 TAP_150
*1335 TAP_151
*1336 TAP_152
*1337 TAP_153
*1338 TAP_154
*1339 TAP_155
*1340 TAP_156
*1341 TAP_157
*1342 TAP_158
*1343 TAP_159
*1344 TAP_160
*1345 TAP_161
*1346 TAP_162
*1347 TAP_163
*1348 TAP_164
*1349 TAP_165
*1350 TAP_166
*1351 TAP_167
*1352 TAP_168
*1353 TAP_169
*1354 TAP_170
*1355 TAP_171
*1356 TAP_172
*1357 TAP_173
*1358 TAP_174
*1359 TAP_175
*1360 TAP_176
*1361 TAP_177
*1362 TAP_178
*1363 TAP_179
*1364 TAP_180
*1365 TAP_181
*1366 TAP_182
*1367 TAP_183
*1368 TAP_184
*1369 TAP_185
*1370 TAP_186
*1371 TAP_187
*1372 TAP_188
*1373 TAP_189
*1374 TAP_190
*1375 TAP_191
*1376 TAP_192
*1377 TAP_193
*1378 TAP_194
*1379 TAP_195
*1380 TAP_196
*1381 TAP_197
*1382 TAP_198
*1383 TAP_199
*1384 TAP_200
*1385 TAP_201
*1386 TAP_202
*1387 TAP_203
*1388 TAP_204
*1389 TAP_205
*1390 TAP_206
*1391 TAP_207
*1392 TAP_208
*1393 TAP_209
*1394 TAP_74
*1395 TAP_75
*1396 TAP_76
*1397 TAP_77
*1398 TAP_78
*1399 TAP_79
*1400 TAP_80
*1401 TAP_81
*1402 TAP_82
*1403 TAP_83
*1404 TAP_84
*1405 TAP_85
*1406 TAP_86
*1407 TAP_87
*1408 TAP_88
*1409 TAP_89
*1410 TAP_90
*1411 TAP_91
*1412 TAP_92
*1413 TAP_93
*1414 TAP_94
*1415 TAP_95
*1416 TAP_96
*1417 TAP_97
*1418 TAP_98
*1419 TAP_99
*1420 _347_
*1421 _348_
*1422 _349_
*1423 _350_
*1424 _351_
*1425 _352_
*1426 _353_
*1427 _354_
*1428 _355_
*1429 _356_
*1430 _357_
*1431 _358_
*1432 _359_
*1433 _360_
*1434 _361_
*1435 _362_
*1436 _363_
*1437 _364_
*1438 _365_
*1439 _366_
*1440 _367_
*1441 _368_
*1442 _369_
*1443 _370_
*1444 _371_
*1445 _372_
*1446 _373_
*1447 _374_
*1448 _375_
*1449 _376_
*1450 _377_
*1451 _378_
*1452 _379_
*1453 _380_
*1454 _381_
*1455 _382_
*1456 _383_
*1457 _384_
*1458 _385_
*1459 _386_
*1460 _387_
*1461 _388_
*1462 _389_
*1463 _390_
*1464 _391_
*1465 _392_
*1466 _393_
*1467 _394_
*1468 _395_
*1469 _396_
*1470 _397_
*1471 _398_
*1472 _399_
*1473 _400_
*1474 _401_
*1475 _402_
*1476 _403_
*1477 _404_
*1478 _405_
*1479 _406_
*1480 _407_
*1481 _408_
*1482 _409_
*1483 _410_
*1484 _411_
*1485 _412_
*1486 _413_
*1487 _414_
*1488 _415_
*1489 _416_
*1490 _417_
*1491 _418_
*1492 _419_
*1493 _420_
*1494 _421_
*1495 _422_
*1496 _423_
*1497 _424_
*1498 _425_
*1499 _426_
*1500 _427_
*1501 _428_
*1502 _429_
*1503 _430_
*1504 _431_
*1505 _432_
*1506 _433_
*1507 _434_
*1508 _435_
*1509 _436_
*1510 _437_
*1511 _438_
*1512 _439_
*1513 _440_
*1514 _441_
*1515 _442_
*1516 _443_
*1517 _444_
*1518 _445_
*1519 _446_
*1520 _447_
*1521 _448_
*1522 _449_
*1523 _450_
*1524 _451_
*1525 _452_
*1526 _453_
*1527 _454_
*1528 _455_
*1529 _456_
*1530 _457_
*1531 _458_
*1532 _459_
*1533 _460_
*1534 _461_
*1535 _462_
*1536 _463_
*1537 _464_
*1538 _465_
*1539 _466_
*1540 _467_
*1541 _468_
*1542 _469_
*1543 _470_
*1544 _471_
*1545 _472_
*1546 _473_
*1547 _474_
*1548 _475_
*1549 _476_
*1550 _477_
*1551 _478_
*1552 _479_
*1553 _480_
*1554 _481_
*1555 _482_
*1556 _483_
*1557 _484_
*1558 _485_
*1559 _486_
*1560 _487_
*1561 _488_
*1562 _489_
*1563 _490_
*1564 _491_
*1565 _492_
*1566 _493_
*1567 _494_
*1568 _495_
*1569 _496_
*1570 _497_
*1571 _498_
*1572 _499_
*1573 _500_
*1574 _501_
*1575 _502_
*1576 _503_
*1577 _504_
*1578 _505_
*1579 _506_
*1580 _507_
*1581 _508_
*1582 _509_
*1583 _510_
*1584 _511_
*1585 _512_
*1586 _513_
*1587 _514_
*1588 _515_
*1589 _516_
*1590 _517_
*1591 _518_
*1592 _519_
*1593 _520_
*1594 _521_
*1595 _522_
*1596 _523_
*1597 _524_
*1598 _525_
*1599 _526_
*1600 _527_
*1601 _528_
*1602 _529_
*1603 _530_
*1604 _531_
*1605 _532_
*1606 _533_
*1607 _534_
*1608 _535_
*1609 _536_
*1610 _537_
*1611 _538_
*1612 _539_
*1613 _540_
*1614 _541_
*1615 _542_
*1616 _543_
*1617 _544_
*1618 _545_
*1619 _546_
*1620 _547_
*1621 _548_
*1622 _549_
*1623 _550_
*1624 _551_
*1625 _552_
*1626 _553_
*1627 _554_
*1628 _555_
*1629 _556_
*1630 _557_
*1631 _558_
*1632 _559_
*1633 _560_
*1634 _561_
*1635 _562_
*1636 _563_
*1637 _564_
*1638 _565_
*1639 _566_
*1640 _567_
*1641 _568_
*1642 _569_
*1643 _570_
*1644 _571_
*1645 _572_
*1646 _573_
*1647 _574_
*1648 _575_
*1649 _576_
*1650 _577_
*1651 _578_
*1652 _579_
*1653 _580_
*1654 _581_
*1655 _582_
*1656 _583_
*1657 _584_
*1658 _585_
*1659 _586_
*1660 _587_
*1661 _588_
*1662 _589_
*1663 _590_
*1664 _591_
*1665 _592_
*1666 _593_
*1667 _594_
*1668 _595_
*1669 _596_
*1670 _597_
*1671 _598_
*1672 _599_
*1673 _600_
*1674 _601_
*1675 _602_
*1676 _603_
*1677 _604_
*1678 _605_
*1679 _606_
*1680 _607_
*1681 _608_
*1682 _609_
*1683 _610_
*1684 _611_
*1685 _612_
*1686 _613_
*1687 _614_
*1688 _615_
*1689 _616_
*1690 _617_
*1691 _618_
*1692 _619_
*1693 _620_
*1694 _621_
*1695 _622_
*1696 _623_
*1697 _624_
*1698 _625_
*1699 _626_
*1700 _627_
*1701 _628_
*1702 _629_
*1703 _630_
*1704 _631_
*1705 _632_
*1706 _633_
*1707 _634_
*1708 _635_
*1709 _636_
*1710 _637_
*1711 _638_
*1712 _639_
*1713 _640_
*1714 _641_
*1715 _642_
*1716 _643_
*1717 _644_
*1718 _645_
*1719 _646_
*1720 _647_
*1721 _648_
*1722 _649_
*1723 _650_
*1724 _651_
*1725 _652_
*1726 _653_
*1727 _654_
*1728 _655_
*1729 _656_
*1730 _657_
*1731 _658_
*1732 _659_
*1733 _660_
*1734 _661_
*1735 _662_
*1736 _663_
*1737 _664_
*1738 _665_
*1739 _666_
*1740 _667_
*1741 _668_
*1742 _669_
*1743 _670_
*1744 _671_
*1745 _672_
*1746 _673_
*1747 _674_
*1748 _675_
*1749 _676_
*1750 _677_
*1751 _678_
*1752 _679_
*1753 _680_
*1754 _681_
*1755 _682_
*1756 _683_
*1757 _684_
*1758 _685_
*1759 _686_
*1760 _687_
*1761 _688_
*1762 _689_
*1763 _690_
*1764 _691_
*1765 _692_
*1766 _693_
*1767 _694_
*1768 _695_
*1769 _696_
*1770 _697_
*1771 _698_
*1772 _699_
*1773 _700_
*1774 _701_
*1775 _702_
*1776 _703_
*1777 _704_
*1778 _705_
*1779 _706_
*1780 _707_
*1781 _708_
*1782 _709_
*1783 _710_
*1784 _711_
*1785 _712_
*1786 _713_
*1787 _714_
*1788 _715_
*1789 _716_
*1790 _717_
*1791 _718_
*1792 _719_
*1793 _720_
*1794 _721_
*1795 _722_
*1796 _723_
*1797 _724_
*1798 _725_
*1799 _726_
*1800 _727_
*1801 _728_
*1802 _729_
*1803 _730_
*1804 _731_
*1805 _732_
*1806 _733_
*1807 _734_
*1808 _735_
*1809 _736_
*1810 _737_
*1811 _738_
*1812 _739_
*1813 _740_
*1814 _741_
*1815 _742_
*1816 _743_
*1817 _744_
*1818 _745_
*1819 _746_
*1820 _747_
*1821 clkbuf_0_clk
*1822 clkbuf_2_0__f_clk
*1823 clkbuf_2_1__f_clk
*1824 clkbuf_2_2__f_clk
*1825 clkbuf_2_3__f_clk
*1826 hold1
*1827 hold10
*1828 hold11
*1829 hold12
*1830 hold13
*1831 hold14
*1832 hold15
*1833 hold16
*1834 hold17
*1835 hold18
*1836 hold19
*1837 hold2
*1838 hold20
*1839 hold21
*1840 hold22
*1841 hold23
*1842 hold24
*1843 hold25
*1844 hold26
*1845 hold27
*1846 hold28
*1847 hold29
*1848 hold3
*1849 hold30
*1850 hold31
*1851 hold32
*1852 hold33
*1853 hold4
*1854 hold5
*1855 hold6
*1856 hold7
*1857 hold8
*1858 hold9
*1859 input1
*1860 input10
*1861 input11
*1862 input12
*1863 input13
*1864 input14
*1865 input15
*1866 input16
*1867 input17
*1868 input18
*1869 input2
*1870 input3
*1871 input4
*1872 input5
*1873 input6
*1874 input7
*1875 input8
*1876 input9
*1877 max_cap1
*1878 output19
*1879 output20
*1880 output21
*1881 output22
*1882 output23
*1883 output24
*1884 output25
*1885 output26
*1886 output27
*1887 output28
*1888 output29
*1889 output30
*1890 output31
*1891 output32
*1892 output33
*1893 output34
*1894 output35
*1895 wire36

*PORTS
clk I
done O
multiplicand[0] I
multiplicand[1] I
multiplicand[2] I
multiplicand[3] I
multiplicand[4] I
multiplicand[5] I
multiplicand[6] I
multiplicand[7] I
multiplier[0] I
multiplier[1] I
multiplier[2] I
multiplier[3] I
multiplier[4] I
multiplier[5] I
multiplier[6] I
multiplier[7] I
product[0] O
product[10] O
product[11] O
product[12] O
product[13] O
product[14] O
product[15] O
product[1] O
product[2] O
product[3] O
product[4] O
product[5] O
product[6] O
product[7] O
product[8] O
product[9] O
rst I
start I

*D_NET *3 0.0177145
*CONN
*P clk I
*I *1821:A I *D sky130_fd_sc_hd__clkbuf_16
*CAP
1 clk 0.00460919
2 *1821:A 0.00460919
3 *1821:A product[13] 0
4 *1821:A *1497:B1 7.97032e-05
5 *1821:A *1648:A1 0.00186551
6 *1821:A *1653:A1 0.00409556
7 *1821:A *1861:A 0
8 *1821:A *172:21 0.000110323
9 *1821:A *228:39 0
10 *1821:A *238:10 7.45968e-05
11 *1821:A *360:24 0.000612021
12 *1821:A *386:20 0.00165842
13 *1821:A *408:28 0
*RES
1 clk *1821:A 31.2568 
*END

*D_NET *4 0.00053751
*CONN
*P done O
*I *1878:X O *D sky130_fd_sc_hd__clkbuf_4
*CAP
1 done 0.000263147
2 *1878:X 0.000263147
3 done *1878:A 1.12156e-05
*RES
1 *1878:X done 5.29677 
*END

*D_NET *5 0.000978963
*CONN
*P multiplicand[0] I
*I *1859:A I *D sky130_fd_sc_hd__buf_1
*CAP
1 multiplicand[0] 0.000489481
2 *1859:A 0.000489481
*RES
1 multiplicand[0] *1859:A 12.24 
*END

*D_NET *6 0.000911672
*CONN
*P multiplicand[1] I
*I *1869:A I *D sky130_fd_sc_hd__clkbuf_1
*CAP
1 multiplicand[1] 0.000419046
2 *1869:A 0.000419046
3 *1869:A *1657:A1 7.35813e-05
*RES
1 multiplicand[1] *1869:A 11.04 
*END

*D_NET *7 0.000892627
*CONN
*P multiplicand[2] I
*I *1870:A I *D sky130_fd_sc_hd__clkbuf_1
*CAP
1 multiplicand[2] 0.000427668
2 *1870:A 0.000427668
3 *1870:A *1638:A0 3.72916e-05
*RES
1 multiplicand[2] *1870:A 11.04 
*END

*D_NET *8 0.00107641
*CONN
*P multiplicand[3] I
*I *1871:A I *D sky130_fd_sc_hd__clkbuf_1
*CAP
1 multiplicand[3] 0.000538204
2 *1871:A 0.000538204
*RES
1 multiplicand[3] *1871:A 12.825 
*END

*D_NET *9 0.000654382
*CONN
*P multiplicand[4] I
*I *1872:A I *D sky130_fd_sc_hd__clkbuf_1
*CAP
1 multiplicand[4] 0.000279511
2 *1872:A 0.000279511
3 *1872:A *1634:A0 4.80285e-05
4 *1872:A *387:140 4.73312e-05
*RES
1 multiplicand[4] *1872:A 6.40677 
*END

*D_NET *10 0.000690033
*CONN
*P multiplicand[5] I
*I *1873:A I *D sky130_fd_sc_hd__clkbuf_1
*CAP
1 multiplicand[5] 0.000345016
2 *1873:A 0.000345016
3 *1873:A *1784:D 0
*RES
1 multiplicand[5] *1873:A 8.35043 
*END

*D_NET *11 0.000556044
*CONN
*P multiplicand[6] I
*I *1874:A I *D sky130_fd_sc_hd__clkbuf_1
*CAP
1 multiplicand[6] 0.000278022
2 *1874:A 0.000278022
3 *1874:A *1855:A 0
4 *1874:A *395:10 0
*RES
1 multiplicand[6] *1874:A 6.9687 
*END

*D_NET *12 0.00174118
*CONN
*P multiplicand[7] I
*I *1875:A I *D sky130_fd_sc_hd__clkbuf_1
*CAP
1 multiplicand[7] 0.000870588
2 *1875:A 0.000870588
*RES
1 multiplicand[7] *1875:A 18.45 
*END

*D_NET *13 0.00107782
*CONN
*P multiplier[0] I
*I *1876:A I *D sky130_fd_sc_hd__clkbuf_1
*CAP
1 multiplier[0] 0.00052389
2 *1876:A 0.00052389
3 *1876:A *1661:A1 3.00381e-05
*RES
1 multiplier[0] *1876:A 12.825 
*END

*D_NET *14 0.000493569
*CONN
*P multiplier[1] I
*I *1860:A I *D sky130_fd_sc_hd__buf_1
*CAP
1 multiplier[1] 0.000246784
2 *1860:A 0.000246784
*RES
1 multiplier[1] *1860:A 6.89543 
*END

*D_NET *15 0.00226407
*CONN
*P multiplier[2] I
*I *1861:A I *D sky130_fd_sc_hd__buf_1
*CAP
1 multiplier[2] 0.00103834
2 *1861:A 0.00103834
3 *1861:A *1657:A1 0.000187381
4 *1821:A *1861:A 0
*RES
1 multiplier[2] *1861:A 17.0694 
*END

*D_NET *16 0.000641706
*CONN
*P multiplier[3] I
*I *1862:A I *D sky130_fd_sc_hd__clkbuf_1
*CAP
1 multiplier[3] 0.000294319
2 *1862:A 0.000294319
3 *1862:A *1655:A1 5.30673e-05
4 *1862:A *1864:A 0
*RES
1 multiplier[3] *1862:A 7.84043 
*END

*D_NET *17 0.00062329
*CONN
*P multiplier[4] I
*I *1863:A I *D sky130_fd_sc_hd__buf_1
*CAP
1 multiplier[4] 0.00030731
2 *1863:A 0.00030731
3 *1863:A *1890:A 0
4 *1863:A *395:10 8.66976e-06
*RES
1 multiplier[4] *1863:A 7.11697 
*END

*D_NET *18 0.00143752
*CONN
*P multiplier[5] I
*I *1864:A I *D sky130_fd_sc_hd__clkbuf_1
*CAP
1 multiplier[5] 0.000700115
2 *1864:A 0.000700115
3 *1864:A *1651:A1 3.72916e-05
4 *1862:A *1864:A 0
*RES
1 multiplier[5] *1864:A 15.87 
*END

*D_NET *19 0.000630602
*CONN
*P multiplier[6] I
*I *1865:A I *D sky130_fd_sc_hd__buf_1
*CAP
1 multiplier[6] 0.000309061
2 *1865:A 0.000309061
3 *1865:A *1649:A1 7.77167e-06
4 *1865:A *415:25 4.7072e-06
*RES
1 multiplier[6] *1865:A 7.11697 
*END

*D_NET *20 0.00107782
*CONN
*P multiplier[7] I
*I *1866:A I *D sky130_fd_sc_hd__clkbuf_1
*CAP
1 multiplier[7] 0.00052389
2 *1866:A 0.00052389
3 *1866:A *1646:C 3.00381e-05
*RES
1 multiplier[7] *1866:A 12.825 
*END

*D_NET *21 0.000533961
*CONN
*P product[0] O
*I *1879:X O *D sky130_fd_sc_hd__clkbuf_4
*CAP
1 product[0] 0.000266981
2 *1879:X 0.000266981
*RES
1 *1879:X product[0] 4.9633 
*END

*D_NET *22 0.00124413
*CONN
*P product[10] O
*I *1880:X O *D sky130_fd_sc_hd__clkbuf_4
*CAP
1 product[10] 0.000520474
2 *1880:X 0.000520474
3 product[10] *1867:A 0.000203178
*RES
1 *1880:X product[10] 13.26 
*END

*D_NET *23 0.000707074
*CONN
*P product[11] O
*I *1881:X O *D sky130_fd_sc_hd__clkbuf_4
*CAP
1 product[11] 0.000353537
2 *1881:X 0.000353537
*RES
1 *1881:X product[11] 9.945 
*END

*D_NET *24 0.00114001
*CONN
*P product[12] O
*I *1882:X O *D sky130_fd_sc_hd__clkbuf_4
*CAP
1 product[12] 0.000570005
2 *1882:X 0.000570005
*RES
1 *1882:X product[12] 13.26 
*END

*D_NET *25 0.00047295
*CONN
*P product[13] O
*I *1883:X O *D sky130_fd_sc_hd__buf_2
*CAP
1 product[13] 0.000236475
2 *1883:X 0.000236475
3 *1821:A product[13] 0
*RES
1 *1883:X product[13] 4.90503 
*END

*D_NET *26 0.000656106
*CONN
*P product[14] O
*I *1884:X O *D sky130_fd_sc_hd__clkbuf_4
*CAP
1 product[14] 0.000328053
2 *1884:X 0.000328053
*RES
1 *1884:X product[14] 9.39 
*END

*D_NET *27 0.000707074
*CONN
*P product[15] O
*I *1885:X O *D sky130_fd_sc_hd__clkbuf_4
*CAP
1 product[15] 0.000353537
2 *1885:X 0.000353537
*RES
1 *1885:X product[15] 9.945 
*END

*D_NET *28 0.000541633
*CONN
*P product[1] O
*I *1886:X O *D sky130_fd_sc_hd__clkbuf_4
*CAP
1 product[1] 0.000270817
2 *1886:X 0.000270817
*RES
1 *1886:X product[1] 4.9633 
*END

*D_NET *29 0.000548001
*CONN
*P product[2] O
*I *1887:X O *D sky130_fd_sc_hd__clkbuf_4
*CAP
1 product[2] 0.000253012
2 *1887:X 0.000253012
3 product[2] *1653:A1 4.1977e-05
*RES
1 *1887:X product[2] 5.55177 
*END

*D_NET *30 0.000707074
*CONN
*P product[3] O
*I *1888:X O *D sky130_fd_sc_hd__clkbuf_4
*CAP
1 product[3] 0.000353537
2 *1888:X 0.000353537
*RES
1 *1888:X product[3] 9.945 
*END

*D_NET *31 0.000638992
*CONN
*P product[4] O
*I *1889:X O *D sky130_fd_sc_hd__clkbuf_4
*CAP
1 product[4] 0.000309409
2 *1889:X 0.000309409
3 product[4] *1889:A 2.01737e-05
*RES
1 *1889:X product[4] 7.07543 
*END

*D_NET *32 0.000621733
*CONN
*P product[5] O
*I *1890:X O *D sky130_fd_sc_hd__buf_2
*CAP
1 product[5] 0.000305011
2 *1890:X 0.000305011
3 product[5] *1890:A 1.17114e-05
*RES
1 *1890:X product[5] 4.90503 
*END

*D_NET *33 0.00114001
*CONN
*P product[6] O
*I *1891:X O *D sky130_fd_sc_hd__clkbuf_4
*CAP
1 product[6] 0.000570005
2 *1891:X 0.000570005
*RES
1 *1891:X product[6] 13.26 
*END

*D_NET *34 0.00114506
*CONN
*P product[7] O
*I *1892:X O *D sky130_fd_sc_hd__clkbuf_4
*CAP
1 product[7] 0.00057253
2 *1892:X 0.00057253
*RES
1 *1892:X product[7] 13.26 
*END

*D_NET *35 0.000898673
*CONN
*P product[8] O
*I *1893:X O *D sky130_fd_sc_hd__clkbuf_4
*CAP
1 product[8] 0.000417396
2 *1893:X 0.000417396
3 product[8] *1657:A1 1.33293e-05
4 product[8] *1893:A 5.05521e-05
*RES
1 *1893:X product[8] 10.53 
*END

*D_NET *36 0.000793713
*CONN
*P product[9] O
*I *1894:X O *D sky130_fd_sc_hd__clkbuf_4
*CAP
1 product[9] 0.000390156
2 *1894:X 0.000390156
3 product[9] *1632:S 0
4 product[9] *1803:CLK 1.34017e-05
*RES
1 *1894:X product[9] 5.3931 
*END

*D_NET *37 0.00277093
*CONN
*P rst I
*I *1867:A I *D sky130_fd_sc_hd__clkbuf_1
*CAP
1 rst 0.00114341
2 *1867:A 0.00114341
3 *1867:A *1659:A1 0.000280925
4 product[10] *1867:A 0.000203178
*RES
1 rst *1867:A 18.7108 
*END

*D_NET *38 0.000911163
*CONN
*P start I
*I *1868:A I *D sky130_fd_sc_hd__clkbuf_4
*CAP
1 start 0.000455582
2 *1868:A 0.000455582
3 *1868:A *1749:A 0
4 *1868:A *415:25 0
*RES
1 start *1868:A 6.24637 
*END

*D_NET *39 0.000577969
*CONN
*I *1771:D I *D sky130_fd_sc_hd__dfrtp_2
*I *1706:Y O *D sky130_fd_sc_hd__a21oi_1
*CAP
1 *1771:D 0.00010298
2 *1706:Y 0.00010298
3 *1771:D *1706:A2 4.38313e-05
4 *1771:D *1771:CLK 0.000159741
5 *1771:D *163:134 0.000168435
*RES
1 *1706:Y *1771:D 6.185 
*END

*D_NET *40 0.000904765
*CONN
*I *1767:RESET_B I *D sky130_fd_sc_hd__dfrtp_1
*I *1709:Y O *D sky130_fd_sc_hd__inv_2
*CAP
1 *1767:RESET_B 0.000255392
2 *1709:Y 0.000255392
3 *1767:RESET_B *1705:B1_N 0.000269478
4 *1767:RESET_B *1767:CLK 2.34984e-05
5 *1767:RESET_B *1858:A 4.70326e-05
6 *1767:RESET_B *339:16 5.39718e-05
*RES
1 *1709:Y *1767:RESET_B 9.6425 
*END

*D_NET *41 0.000671646
*CONN
*I *1768:RESET_B I *D sky130_fd_sc_hd__dfrtp_1
*I *1710:Y O *D sky130_fd_sc_hd__inv_2
*CAP
1 *1768:RESET_B 0.000113229
2 *1710:Y 0.000113229
3 *1768:RESET_B *1749:A 0.000343914
4 *1768:RESET_B *400:22 0
5 *1768:RESET_B *495:10 4.91189e-05
6 *1768:RESET_B *495:21 5.21545e-05
*RES
1 *1710:Y *1768:RESET_B 9.53 
*END

*D_NET *42 0.00036407
*CONN
*I *1769:RESET_B I *D sky130_fd_sc_hd__dfrtp_1
*I *1711:Y O *D sky130_fd_sc_hd__inv_2
*CAP
1 *1769:RESET_B 9.68076e-05
2 *1711:Y 9.68076e-05
3 *1769:RESET_B *1890:A 5.01003e-05
4 *1769:RESET_B *381:100 3.50571e-05
5 *1769:RESET_B *422:14 8.52972e-05
*RES
1 *1711:Y *1769:RESET_B 7.52 
*END

*D_NET *43 0.00093274
*CONN
*I *1770:RESET_B I *D sky130_fd_sc_hd__dfrtp_1
*I *1712:Y O *D sky130_fd_sc_hd__inv_2
*CAP
1 *1770:RESET_B 0.000268263
2 *1712:Y 0.000268263
3 *1770:RESET_B *1712:A 0.000163204
4 *1770:RESET_B *381:90 0.00023301
*RES
1 *1712:Y *1770:RESET_B 6.1375 
*END

*D_NET *44 0.000451499
*CONN
*I *1771:RESET_B I *D sky130_fd_sc_hd__dfrtp_2
*I *1713:Y O *D sky130_fd_sc_hd__inv_2
*CAP
1 *1771:RESET_B 8.70943e-05
2 *1713:Y 8.70943e-05
3 *1771:RESET_B *1671:A1 9.08317e-05
4 *1771:RESET_B *381:56 5.83121e-06
5 *1771:RESET_B *381:73 0.000180647
*RES
1 *1713:Y *1771:RESET_B 7.94 
*END

*D_NET *45 0.000358048
*CONN
*I *1772:RESET_B I *D sky130_fd_sc_hd__dfrtp_4
*I *1714:Y O *D sky130_fd_sc_hd__inv_2
*CAP
1 *1772:RESET_B 0.000134881
2 *1714:Y 0.000134881
3 *1772:RESET_B *381:116 8.82858e-05
*RES
1 *1714:Y *1772:RESET_B 7.94 
*END

*D_NET *46 0.000522372
*CONN
*I *1773:RESET_B I *D sky130_fd_sc_hd__dfrtp_1
*I *1715:Y O *D sky130_fd_sc_hd__inv_2
*CAP
1 *1773:RESET_B 0.000179798
2 *1715:Y 0.000179798
3 *1773:RESET_B *1628:A0 0
4 *1773:RESET_B *1695:A1 0.000162777
*RES
1 *1715:Y *1773:RESET_B 8.21 
*END

*D_NET *47 0.000450441
*CONN
*I *1774:RESET_B I *D sky130_fd_sc_hd__dfrtp_1
*I *1716:Y O *D sky130_fd_sc_hd__inv_2
*CAP
1 *1774:RESET_B 6.93303e-05
2 *1716:Y 6.93303e-05
3 *1774:RESET_B *1694:A 2.69153e-05
4 *1774:RESET_B *382:32 0.000141599
5 *1774:RESET_B *384:12 0.000143266
*RES
1 *1716:Y *1774:RESET_B 7.685 
*END

*D_NET *48 0.000950142
*CONN
*I *1775:RESET_B I *D sky130_fd_sc_hd__dfrtp_1
*I *1717:Y O *D sky130_fd_sc_hd__inv_2
*CAP
1 *1775:RESET_B 0.000248353
2 *1717:Y 0.000248353
3 *1775:RESET_B *1717:A 0.000453436
*RES
1 *1717:Y *1775:RESET_B 6.1375 
*END

*D_NET *49 0.00060841
*CONN
*I *1776:RESET_B I *D sky130_fd_sc_hd__dfrtp_1
*I *1718:Y O *D sky130_fd_sc_hd__inv_2
*CAP
1 *1776:RESET_B 0.00020406
2 *1718:Y 0.00020406
3 *1776:RESET_B *1689:A1 0.000200289
4 *1776:RESET_B *1845:A 0
*RES
1 *1718:Y *1776:RESET_B 8.555 
*END

*D_NET *50 0.00032718
*CONN
*I *1777:RESET_B I *D sky130_fd_sc_hd__dfrtp_1
*I *1720:Y O *D sky130_fd_sc_hd__inv_2
*CAP
1 *1777:RESET_B 9.44213e-05
2 *1720:Y 9.44213e-05
3 *1777:RESET_B *1687:A1 0
4 *1777:RESET_B *1720:A 9.17261e-05
5 *1777:RESET_B *1777:D 0
6 *1777:RESET_B *487:43 4.66108e-05
*RES
1 *1720:Y *1777:RESET_B 7.175 
*END

*D_NET *51 0.000385231
*CONN
*I *1778:RESET_B I *D sky130_fd_sc_hd__dfrtp_1
*I *1721:Y O *D sky130_fd_sc_hd__inv_2
*CAP
1 *1778:RESET_B 9.81537e-05
2 *1721:Y 9.81537e-05
3 *1778:RESET_B *1778:CLK 1.81788e-05
4 *1778:RESET_B *382:16 4.89295e-05
5 *1778:RESET_B *382:32 0.000121815
*RES
1 *1721:Y *1778:RESET_B 3.3775 
*END

*D_NET *52 0.000308463
*CONN
*I *1779:RESET_B I *D sky130_fd_sc_hd__dfrtp_1
*I *1722:Y O *D sky130_fd_sc_hd__inv_2
*CAP
1 *1779:RESET_B 7.40982e-05
2 *1722:Y 7.40982e-05
3 *1779:RESET_B *1722:A 0.000160266
*RES
1 *1722:Y *1779:RESET_B 7.49 
*END

*D_NET *53 0.000148833
*CONN
*I *1780:RESET_B I *D sky130_fd_sc_hd__dfrtp_1
*I *1723:Y O *D sky130_fd_sc_hd__inv_2
*CAP
1 *1780:RESET_B 7.44163e-05
2 *1723:Y 7.44163e-05
*RES
1 *1723:Y *1780:RESET_B 6.725 
*END

*D_NET *54 0.000901848
*CONN
*I *1781:RESET_B I *D sky130_fd_sc_hd__dfrtp_1
*I *1724:Y O *D sky130_fd_sc_hd__inv_2
*CAP
1 *1781:RESET_B 0.000347572
2 *1724:Y 0.000347572
3 *1781:RESET_B *1724:A 4.99619e-05
4 *1781:RESET_B *1781:CLK 5.83121e-06
5 *1781:RESET_B *1818:CLK 0
6 *1781:RESET_B *1844:A 0.00012044
7 *1781:RESET_B *417:6 3.04704e-05
*RES
1 *1724:Y *1781:RESET_B 7.5625 
*END

*D_NET *55 0.000436878
*CONN
*I *1782:RESET_B I *D sky130_fd_sc_hd__dfrtp_1
*I *1725:Y O *D sky130_fd_sc_hd__inv_2
*CAP
1 *1782:RESET_B 0.000144399
2 *1725:Y 0.000144399
3 *1782:RESET_B *1657:A1 4.77719e-05
4 *1782:RESET_B *1725:A 5.04446e-05
5 *1782:RESET_B *382:92 4.98637e-05
*RES
1 *1725:Y *1782:RESET_B 7.94 
*END

*D_NET *56 0.000313738
*CONN
*I *1783:RESET_B I *D sky130_fd_sc_hd__dfrtp_1
*I *1726:Y O *D sky130_fd_sc_hd__inv_2
*CAP
1 *1783:RESET_B 0.000121346
2 *1726:Y 0.000121346
3 *1783:RESET_B *1840:A 2.21074e-05
4 *1783:RESET_B *382:76 4.89395e-05
*RES
1 *1726:Y *1783:RESET_B 3.3775 
*END

*D_NET *57 0.000572701
*CONN
*I *1784:RESET_B I *D sky130_fd_sc_hd__dfrtp_1
*I *1727:Y O *D sky130_fd_sc_hd__inv_2
*CAP
1 *1784:RESET_B 0.000107471
2 *1727:Y 0.000107471
3 *1784:RESET_B *1727:A 3.31103e-05
4 *1784:RESET_B *382:32 0.000162325
5 *1784:RESET_B *384:12 0.000162325
*RES
1 *1727:Y *1784:RESET_B 8.285 
*END

*D_NET *58 0.000319481
*CONN
*I *1785:RESET_B I *D sky130_fd_sc_hd__dfrtp_1
*I *1728:Y O *D sky130_fd_sc_hd__inv_2
*CAP
1 *1785:RESET_B 0.000101949
2 *1728:Y 0.000101949
3 *1785:RESET_B *1672:A0 0
4 *1785:RESET_B *388:80 0.000115582
*RES
1 *1728:Y *1785:RESET_B 7.49 
*END

*D_NET *59 0.000306428
*CONN
*I *1786:RESET_B I *D sky130_fd_sc_hd__dfrtp_1
*I *1729:Y O *D sky130_fd_sc_hd__inv_2
*CAP
1 *1786:RESET_B 7.92195e-05
2 *1729:Y 7.92195e-05
3 *1786:RESET_B *1729:A 0.000147989
*RES
1 *1729:Y *1786:RESET_B 7.49 
*END

*D_NET *60 0.000341288
*CONN
*I *1787:RESET_B I *D sky130_fd_sc_hd__dfrtp_1
*I *1731:Y O *D sky130_fd_sc_hd__inv_2
*CAP
1 *1787:RESET_B 0.000106824
2 *1731:Y 0.000106824
3 *1787:RESET_B *1672:S 0
4 *1787:RESET_B *1731:A 7.4027e-05
5 *1787:RESET_B *1787:CLK 4.70477e-05
6 *1787:RESET_B *1838:A 6.56448e-06
*RES
1 *1731:Y *1787:RESET_B 7.4675 
*END

*D_NET *61 0.000352732
*CONN
*I *1788:RESET_B I *D sky130_fd_sc_hd__dfrtp_2
*I *1732:Y O *D sky130_fd_sc_hd__inv_2
*CAP
1 *1788:RESET_B 4.51581e-05
2 *1732:Y 4.51581e-05
3 *1788:RESET_B *1812:CLK 3.05295e-05
4 *1788:RESET_B *162:22 0.000166346
5 *1788:RESET_B *390:38 6.55406e-05
*RES
1 *1732:Y *1788:RESET_B 7.49 
*END

*D_NET *62 0.000390605
*CONN
*I *1789:RESET_B I *D sky130_fd_sc_hd__dfrtp_1
*I *1733:Y O *D sky130_fd_sc_hd__inv_2
*CAP
1 *1789:RESET_B 5.1522e-05
2 *1733:Y 5.1522e-05
3 *1789:RESET_B *1733:A 4.82919e-05
4 *1789:RESET_B *1848:A 8.73389e-06
5 *1789:RESET_B *1885:A 3.54025e-05
6 *1789:RESET_B *331:8 0.000192217
7 *1789:RESET_B *481:41 2.91561e-06
*RES
1 *1733:Y *1789:RESET_B 3.3775 
*END

*D_NET *63 0.000180706
*CONN
*I *1790:RESET_B I *D sky130_fd_sc_hd__dfrtp_1
*I *1734:Y O *D sky130_fd_sc_hd__inv_2
*CAP
1 *1790:RESET_B 9.03529e-05
2 *1734:Y 9.03529e-05
3 *1790:RESET_B *151:74 0
4 *1790:RESET_B *238:10 0
*RES
1 *1734:Y *1790:RESET_B 6.98 
*END

*D_NET *64 0.000336878
*CONN
*I *1791:RESET_B I *D sky130_fd_sc_hd__dfrtp_1
*I *1735:Y O *D sky130_fd_sc_hd__inv_2
*CAP
1 *1791:RESET_B 8.95582e-05
2 *1735:Y 8.95582e-05
3 *1791:RESET_B *383:12 0.000157762
*RES
1 *1735:Y *1791:RESET_B 7.49 
*END

*D_NET *65 0.000323934
*CONN
*I *1792:RESET_B I *D sky130_fd_sc_hd__dfrtp_1
*I *1736:Y O *D sky130_fd_sc_hd__inv_2
*CAP
1 *1792:RESET_B 0.00011823
2 *1736:Y 0.00011823
3 *1792:RESET_B *1736:A 4.99619e-05
4 *1792:RESET_B *383:99 3.75126e-05
*RES
1 *1736:Y *1792:RESET_B 3.3775 
*END

*D_NET *66 0.000570461
*CONN
*I *1793:RESET_B I *D sky130_fd_sc_hd__dfrtp_1
*I *1737:Y O *D sky130_fd_sc_hd__inv_2
*CAP
1 *1793:RESET_B 9.29958e-05
2 *1737:Y 9.29958e-05
3 *1793:RESET_B *1654:A2 0.00013521
4 *1793:RESET_B *1654:B2 2.45989e-05
5 *1793:RESET_B *266:79 4.11729e-05
6 *1793:RESET_B *314:65 0.000136877
7 *1793:RESET_B *387:52 4.66108e-05
*RES
1 *1737:Y *1793:RESET_B 8.0825 
*END

*D_NET *67 0.000423298
*CONN
*I *1794:RESET_B I *D sky130_fd_sc_hd__dfrtp_1
*I *1738:Y O *D sky130_fd_sc_hd__inv_2
*CAP
1 *1794:RESET_B 0.000151326
2 *1738:Y 0.000151326
3 *1794:RESET_B *1653:B1 0
4 *1794:RESET_B *1687:A0 0
5 *1794:RESET_B *303:63 0.000120647
*RES
1 *1738:Y *1794:RESET_B 7.94 
*END

*D_NET *68 0.000459469
*CONN
*I *1795:RESET_B I *D sky130_fd_sc_hd__dfrtp_1
*I *1739:Y O *D sky130_fd_sc_hd__inv_2
*CAP
1 *1795:RESET_B 0.000136404
2 *1739:Y 0.000136404
3 *1795:RESET_B *1655:A2 8.47513e-05
4 *1795:RESET_B *383:48 4.77807e-05
5 *1795:RESET_B *383:61 5.41296e-05
*RES
1 *1739:Y *1795:RESET_B 4.0825 
*END

*D_NET *69 0.000500486
*CONN
*I *1796:RESET_B I *D sky130_fd_sc_hd__dfrtp_1
*I *1740:Y O *D sky130_fd_sc_hd__inv_2
*CAP
1 *1796:RESET_B 0.000112481
2 *1740:Y 0.000112481
3 *1796:RESET_B *1740:A 0.000153058
4 *1796:RESET_B *1782:CLK 4.28112e-06
5 *1796:RESET_B *388:18 7.6949e-05
6 *1796:RESET_B *388:41 4.1235e-05
*RES
1 *1740:Y *1796:RESET_B 8.2325 
*END

*D_NET *70 0.000409392
*CONN
*I *1797:RESET_B I *D sky130_fd_sc_hd__dfrtp_2
*I *1742:Y O *D sky130_fd_sc_hd__inv_2
*CAP
1 *1797:RESET_B 0.0001322
2 *1742:Y 0.0001322
3 *1797:RESET_B *163:22 9.55448e-05
4 *1797:RESET_B *473:8 4.94474e-05
*RES
1 *1742:Y *1797:RESET_B 7.94 
*END

*D_NET *71 0.000278479
*CONN
*I *1798:RESET_B I *D sky130_fd_sc_hd__dfrtp_4
*I *1743:Y O *D sky130_fd_sc_hd__inv_2
*CAP
1 *1798:RESET_B 6.66884e-05
2 *1743:Y 6.66884e-05
3 *1798:RESET_B *360:113 8.82858e-05
4 *1798:RESET_B *384:43 5.68166e-05
*RES
1 *1743:Y *1798:RESET_B 7.49 
*END

*D_NET *72 0.000523144
*CONN
*I *1799:RESET_B I *D sky130_fd_sc_hd__dfrtp_2
*I *1744:Y O *D sky130_fd_sc_hd__inv_2
*CAP
1 *1799:RESET_B 0.000202818
2 *1744:Y 0.000202818
3 *1799:RESET_B *339:26 4.77807e-05
4 *1799:RESET_B *478:23 6.97275e-05
*RES
1 *1744:Y *1799:RESET_B 9.215 
*END

*D_NET *73 0.000368245
*CONN
*I *1800:RESET_B I *D sky130_fd_sc_hd__dfrtp_4
*I *1745:Y O *D sky130_fd_sc_hd__inv_2
*CAP
1 *1800:RESET_B 6.89213e-05
2 *1745:Y 6.89213e-05
3 *1800:RESET_B *1691:A0 7.01359e-05
4 *1800:RESET_B *477:12 0.000160266
*RES
1 *1745:Y *1800:RESET_B 7.49 
*END

*D_NET *74 0.000264576
*CONN
*I *1801:RESET_B I *D sky130_fd_sc_hd__dfrtp_4
*I *1746:Y O *D sky130_fd_sc_hd__inv_2
*CAP
1 *1801:RESET_B 8.78307e-05
2 *1746:Y 8.78307e-05
3 *1801:RESET_B *1636:S 4.99619e-05
4 *1801:RESET_B *390:53 3.89528e-05
5 *1801:RESET_B *479:12 0
*RES
1 *1746:Y *1801:RESET_B 7.175 
*END

*D_NET *75 0.000209966
*CONN
*I *1802:RESET_B I *D sky130_fd_sc_hd__dfrtp_4
*I *1747:Y O *D sky130_fd_sc_hd__inv_2
*CAP
1 *1802:RESET_B 7.53407e-05
2 *1747:Y 7.53407e-05
3 *1802:RESET_B *1717:A 5.92849e-05
4 *1802:RESET_B *387:125 0
*RES
1 *1747:Y *1802:RESET_B 7.235 
*END

*D_NET *76 0.000346029
*CONN
*I *1803:RESET_B I *D sky130_fd_sc_hd__dfrtp_4
*I *1748:Y O *D sky130_fd_sc_hd__inv_2
*CAP
1 *1803:RESET_B 4.52103e-05
2 *1748:Y 4.52103e-05
3 *1803:RESET_B *1717:A 9.16237e-05
4 *1803:RESET_B *384:12 0.000163985
*RES
1 *1748:Y *1803:RESET_B 7.49 
*END

*D_NET *77 0.000338462
*CONN
*I *1804:RESET_B I *D sky130_fd_sc_hd__dfrtp_4
*I *1749:Y O *D sky130_fd_sc_hd__inv_2
*CAP
1 *1804:RESET_B 0.000123964
2 *1749:Y 0.000123964
3 *1804:RESET_B *1749:A 9.05349e-05
*RES
1 *1749:Y *1804:RESET_B 7.94 
*END

*D_NET *78 0.000313731
*CONN
*I *1805:RESET_B I *D sky130_fd_sc_hd__dfrtp_4
*I *1750:Y O *D sky130_fd_sc_hd__inv_2
*CAP
1 *1805:RESET_B 0.000156866
2 *1750:Y 0.000156866
3 *1805:RESET_B *1890:A 0
4 *1805:RESET_B *339:154 0
*RES
1 *1750:Y *1805:RESET_B 7.94 
*END

*D_NET *79 0.000164578
*CONN
*I *1806:RESET_B I *D sky130_fd_sc_hd__dfrtp_1
*I *1751:Y O *D sky130_fd_sc_hd__inv_2
*CAP
1 *1806:RESET_B 5.76222e-05
2 *1751:Y 5.76222e-05
3 *1806:RESET_B *383:48 4.93336e-05
*RES
1 *1751:Y *1806:RESET_B 6.725 
*END

*D_NET *80 0.000672339
*CONN
*I *1807:RESET_B I *D sky130_fd_sc_hd__dfrtp_1
*I *1753:Y O *D sky130_fd_sc_hd__inv_2
*CAP
1 *1807:RESET_B 0.000219117
2 *1753:Y 0.000219117
3 *1807:RESET_B *1807:D 4.70343e-05
4 *1807:RESET_B *1827:A 0
5 *1807:RESET_B *383:48 0
6 *1807:RESET_B *384:54 0.000187071
*RES
1 *1753:Y *1807:RESET_B 9.935 
*END

*D_NET *81 0.000751239
*CONN
*I *1808:RESET_B I *D sky130_fd_sc_hd__dfrtp_1
*I *1754:Y O *D sky130_fd_sc_hd__inv_2
*CAP
1 *1808:RESET_B 0.000270503
2 *1754:Y 0.000270503
3 *1808:RESET_B *1857:A 0
4 *1808:RESET_B *383:48 7.46947e-05
5 *1808:RESET_B *468:21 0.000135538
*RES
1 *1754:Y *1808:RESET_B 10.7375 
*END

*D_NET *82 0.000165455
*CONN
*I *1809:RESET_B I *D sky130_fd_sc_hd__dfrtp_2
*I *1755:Y O *D sky130_fd_sc_hd__inv_2
*CAP
1 *1809:RESET_B 6.77982e-05
2 *1755:Y 6.77982e-05
3 *1809:RESET_B *1833:A 2.98587e-05
*RES
1 *1755:Y *1809:RESET_B 6.725 
*END

*D_NET *83 0.000339849
*CONN
*I *1810:RESET_B I *D sky130_fd_sc_hd__dfrtp_2
*I *1756:Y O *D sky130_fd_sc_hd__inv_2
*CAP
1 *1810:RESET_B 0.000123722
2 *1756:Y 0.000123722
3 *1810:RESET_B *1810:D 0
4 *1810:RESET_B *359:18 9.24049e-05
5 *1810:RESET_B *388:122 0
*RES
1 *1756:Y *1810:RESET_B 7.94 
*END

*D_NET *84 0.000684125
*CONN
*I *1811:RESET_B I *D sky130_fd_sc_hd__dfrtp_2
*I *1757:Y O *D sky130_fd_sc_hd__inv_2
*CAP
1 *1811:RESET_B 0.000271909
2 *1757:Y 0.000271909
3 *1811:RESET_B *1600:A1 4.77769e-05
4 *1811:RESET_B *1811:D 0
5 *1811:RESET_B *388:74 4.20711e-05
6 *1811:RESET_B *388:94 0
7 *1811:RESET_B *471:12 0
8 *1811:RESET_B *471:18 5.046e-05
*RES
1 *1757:Y *1811:RESET_B 10.1225 
*END

*D_NET *85 0.000439918
*CONN
*I *1812:RESET_B I *D sky130_fd_sc_hd__dfrtp_2
*I *1758:Y O *D sky130_fd_sc_hd__inv_2
*CAP
1 *1812:RESET_B 0.000130387
2 *1758:Y 0.000130387
3 *1812:RESET_B *1595:A1 2.54715e-05
4 *1812:RESET_B *1668:A3 1.45651e-05
5 *1812:RESET_B *163:124 0
6 *1812:RESET_B *256:59 0.000139108
*RES
1 *1758:Y *1812:RESET_B 8.0825 
*END

*D_NET *86 0.000653313
*CONN
*I *1813:RESET_B I *D sky130_fd_sc_hd__dfrtp_4
*I *1759:Y O *D sky130_fd_sc_hd__inv_2
*CAP
1 *1813:RESET_B 0.000104462
2 *1759:Y 0.000104462
3 *1813:RESET_B *303:145 0.000143493
4 *1813:RESET_B *360:168 0.000163012
5 *1813:RESET_B *383:25 5.29629e-05
6 *1813:RESET_B *389:36 8.49205e-05
*RES
1 *1759:Y *1813:RESET_B 9.305 
*END

*D_NET *87 0.000238002
*CONN
*I *1814:RESET_B I *D sky130_fd_sc_hd__dfrtp_4
*I *1760:Y O *D sky130_fd_sc_hd__inv_2
*CAP
1 *1814:RESET_B 2.91205e-05
2 *1760:Y 2.91205e-05
3 *1814:RESET_B *1642:A0 1.26626e-05
4 *1814:RESET_B *1814:D 7.23533e-05
5 *1814:RESET_B *383:12 9.47454e-05
*RES
1 *1760:Y *1814:RESET_B 6.725 
*END

*D_NET *88 0.000322361
*CONN
*I *1815:RESET_B I *D sky130_fd_sc_hd__dfrtp_4
*I *1761:Y O *D sky130_fd_sc_hd__inv_2
*CAP
1 *1815:RESET_B 7.91848e-05
2 *1761:Y 7.91848e-05
3 *1815:RESET_B *391:12 0.000163992
*RES
1 *1761:Y *1815:RESET_B 7.49 
*END

*D_NET *89 0.000196155
*CONN
*I *1816:RESET_B I *D sky130_fd_sc_hd__dfrtp_2
*I *1762:Y O *D sky130_fd_sc_hd__inv_2
*CAP
1 *1816:RESET_B 5.21499e-05
2 *1762:Y 5.21499e-05
3 *1816:RESET_B *1659:A1 9.18556e-05
*RES
1 *1762:Y *1816:RESET_B 6.725 
*END

*D_NET *90 0.000729934
*CONN
*I *1817:RESET_B I *D sky130_fd_sc_hd__dfrtp_2
*I *1763:Y O *D sky130_fd_sc_hd__inv_2
*CAP
1 *1817:RESET_B 8.38529e-05
2 *1763:Y 8.38529e-05
3 *1817:RESET_B *1514:B 5.45467e-05
4 *1817:RESET_B *1552:B 8.25446e-05
5 *1817:RESET_B *380:67 0.000377357
6 *1817:RESET_B *380:69 4.77807e-05
*RES
1 *1763:Y *1817:RESET_B 5.1025 
*END

*D_NET *91 0.00033642
*CONN
*I *1818:RESET_B I *D sky130_fd_sc_hd__dfrtp_1
*I *1764:Y O *D sky130_fd_sc_hd__inv_2
*CAP
1 *1818:RESET_B 8.50836e-05
2 *1764:Y 8.50836e-05
3 *1818:RESET_B *1560:A1 2.54715e-05
4 *1818:RESET_B *1661:A1 0
5 *1818:RESET_B *1764:A 0.000140782
*RES
1 *1764:Y *1818:RESET_B 7.6325 
*END

*D_NET *92 0.00076997
*CONN
*I *1819:RESET_B I *D sky130_fd_sc_hd__dfrtp_1
*I *1765:Y O *D sky130_fd_sc_hd__inv_2
*CAP
1 *1819:RESET_B 0.000317845
2 *1765:Y 0.000317845
3 *1819:RESET_B *1518:A 5.86575e-05
4 *1819:RESET_B *1847:A 4.89295e-05
5 *1819:RESET_B *390:139 2.66932e-05
*RES
1 *1765:Y *1819:RESET_B 6.8425 
*END

*D_NET *93 0.000378271
*CONN
*I *1820:RESET_B I *D sky130_fd_sc_hd__dfrtp_2
*I *1766:Y O *D sky130_fd_sc_hd__inv_2
*CAP
1 *1820:RESET_B 0.000157552
2 *1766:Y 0.000157552
3 *1820:RESET_B *1534:A3 6.31673e-05
*RES
1 *1766:Y *1820:RESET_B 8.2325 
*END

*D_NET *94 0.00107468
*CONN
*I *1767:D I *D sky130_fd_sc_hd__dfrtp_1
*I *1705:X O *D sky130_fd_sc_hd__a21bo_1
*CAP
1 *1767:D 0.000382412
2 *1705:X 0.000382412
3 *1767:D *1604:A2 0
4 *1767:D *1671:B1 3.68682e-05
5 *1767:D *1705:B1_N 0.000272984
*RES
1 *1705:X *1767:D 12.225 
*END

*D_NET *95 0.000560685
*CONN
*I *1768:D I *D sky130_fd_sc_hd__dfrtp_1
*I *1704:Y O *D sky130_fd_sc_hd__o21ai_1
*CAP
1 *1768:D 0.000161816
2 *1704:Y 0.000161816
3 *1768:D *1705:B1_N 0.000118527
4 *1768:D *381:110 0.000118527
*RES
1 *1704:Y *1768:D 10.41 
*END

*D_NET *96 0.000637907
*CONN
*I *1769:D I *D sky130_fd_sc_hd__dfrtp_1
*I *1702:Y O *D sky130_fd_sc_hd__nand2_1
*CAP
1 *1769:D 0.000204745
2 *1702:Y 0.000204745
3 *1769:D *1662:A 2.49909e-05
4 *1769:D *1662:B 1.08105e-05
5 *1769:D *422:14 0.000122293
6 *1769:D *497:8 7.03219e-05
*RES
1 *1702:Y *1769:D 10.365 
*END

*D_NET *97 0.00070083
*CONN
*I *1770:D I *D sky130_fd_sc_hd__dfrtp_1
*I *1699:Y O *D sky130_fd_sc_hd__o21ai_1
*CAP
1 *1770:D 0.000172923
2 *1699:Y 0.000172923
3 *1770:D *1698:A1 8.73389e-06
4 *1770:D *1699:B1 0.000160323
5 *1770:D *358:14 0.00011852
6 *1770:D *359:18 6.74079e-05
*RES
1 *1699:Y *1770:D 10.41 
*END

*D_NET *98 0.000299558
*CONN
*I *1772:D I *D sky130_fd_sc_hd__dfrtp_4
*I *1696:X O *D sky130_fd_sc_hd__a22o_1
*CAP
1 *1772:D 4.96047e-05
2 *1696:X 4.96047e-05
3 *1772:D *339:22 3.06743e-05
4 *1772:D *359:18 9.18556e-05
5 *1772:D *388:152 4.77807e-05
6 *1772:D *470:12 3.00381e-05
*RES
1 *1696:X *1772:D 8.775 
*END

*D_NET *99 0.000630468
*CONN
*I *1773:D I *D sky130_fd_sc_hd__dfrtp_1
*I *1695:X O *D sky130_fd_sc_hd__o21a_1
*CAP
1 *1773:D 0.000232349
2 *1695:X 0.000232349
3 *1773:D *1695:A2 2.97285e-05
4 *1773:D *1695:B1 8.77498e-05
5 *1773:D *1773:CLK 4.82919e-05
*RES
1 *1695:X *1773:D 6.755 
*END

*D_NET *100 0.000387662
*CONN
*I *1774:D I *D sky130_fd_sc_hd__dfrtp_1
*I *1694:X O *D sky130_fd_sc_hd__clkbuf_1
*CAP
1 *1774:D 0.000169272
2 *1694:X 0.000169272
3 *1774:D *1774:CLK 4.91189e-05
4 *1774:D *1880:A 0
*RES
1 *1694:X *1774:D 9.72 
*END

*D_NET *101 0.000391139
*CONN
*I *1775:D I *D sky130_fd_sc_hd__dfrtp_1
*I *1692:X O *D sky130_fd_sc_hd__clkbuf_1
*CAP
1 *1775:D 0.00019557
2 *1692:X 0.00019557
3 *1775:D *1717:A 0
4 *1775:D *489:18 0
*RES
1 *1692:X *1775:D 9.72 
*END

*D_NET *102 0.000558237
*CONN
*I *1776:D I *D sky130_fd_sc_hd__dfrtp_1
*I *1690:X O *D sky130_fd_sc_hd__clkbuf_1
*CAP
1 *1776:D 0.000197278
2 *1690:X 0.000197278
3 *1776:D *1690:A 9.59764e-05
4 *1776:D *1776:CLK 6.77046e-05
*RES
1 *1690:X *1776:D 6.425 
*END

*D_NET *103 0.000542002
*CONN
*I *1777:D I *D sky130_fd_sc_hd__dfrtp_1
*I *1688:X O *D sky130_fd_sc_hd__clkbuf_1
*CAP
1 *1777:D 0.000191251
2 *1688:X 0.000191251
3 *1777:D *487:43 0.0001595
4 *1777:RESET_B *1777:D 0
*RES
1 *1688:X *1777:D 9.81 
*END

*D_NET *104 0.000486982
*CONN
*I *1778:D I *D sky130_fd_sc_hd__dfrtp_1
*I *1686:X O *D sky130_fd_sc_hd__clkbuf_1
*CAP
1 *1778:D 0.000198613
2 *1686:X 0.000198613
3 *1778:D *1880:A 8.97564e-05
*RES
1 *1686:X *1778:D 10.23 
*END

*D_NET *105 0.000269038
*CONN
*I *1779:D I *D sky130_fd_sc_hd__dfrtp_1
*I *1684:X O *D sky130_fd_sc_hd__clkbuf_1
*CAP
1 *1779:D 7.64819e-05
2 *1684:X 7.64819e-05
3 *1779:D *1684:A 3.72081e-05
4 *1779:D *1779:CLK 8.53856e-06
5 *1779:D *388:105 7.03276e-05
*RES
1 *1684:X *1779:D 8.56875 
*END

*D_NET *106 0.000409615
*CONN
*I *1780:D I *D sky130_fd_sc_hd__dfrtp_1
*I *1682:X O *D sky130_fd_sc_hd__clkbuf_1
*CAP
1 *1780:D 0.000170634
2 *1682:X 0.000170634
3 *1780:D *1659:A1 6.46972e-05
4 *1780:D *360:168 3.64998e-06
*RES
1 *1682:X *1780:D 10.065 
*END

*D_NET *107 0.000367068
*CONN
*I *1781:D I *D sky130_fd_sc_hd__dfrtp_1
*I *1680:X O *D sky130_fd_sc_hd__clkbuf_1
*CAP
1 *1781:D 0.000161512
2 *1680:X 0.000161512
3 *1781:D *1781:CLK 4.40446e-05
*RES
1 *1680:X *1781:D 5.735 
*END

*D_NET *108 0.000388487
*CONN
*I *1782:D I *D sky130_fd_sc_hd__dfrtp_1
*I *1678:X O *D sky130_fd_sc_hd__clkbuf_1
*CAP
1 *1782:D 8.35217e-05
2 *1678:X 8.35217e-05
3 *1782:D *1678:A 1.61831e-05
4 *1782:D *1689:A0 0.000145184
5 *1782:D *1782:CLK 5.30673e-05
6 *1782:D *486:18 7.00889e-06
*RES
1 *1678:X *1782:D 5.735 
*END

*D_NET *109 0.000439842
*CONN
*I *1783:D I *D sky130_fd_sc_hd__dfrtp_1
*I *1676:X O *D sky130_fd_sc_hd__clkbuf_1
*CAP
1 *1783:D 0.000192249
2 *1676:X 0.000192249
3 *1783:D *387:140 3.89366e-05
4 *1783:D *387:155 1.64067e-05
*RES
1 *1676:X *1783:D 9.81 
*END

*D_NET *110 0.00108128
*CONN
*I *1784:D I *D sky130_fd_sc_hd__dfrtp_1
*I *1674:X O *D sky130_fd_sc_hd__a2bb2o_1
*CAP
1 *1784:D 0.00050452
2 *1674:X 0.00050452
3 *1784:D *1727:A 7.22354e-05
4 *1784:D *1880:A 0
5 *1784:D *384:12 0
6 *1873:A *1784:D 0
*RES
1 *1674:X *1784:D 13.86 
*END

*D_NET *111 0.000794605
*CONN
*I *1785:D I *D sky130_fd_sc_hd__dfrtp_1
*I *1673:X O *D sky130_fd_sc_hd__clkbuf_1
*CAP
1 *1785:D 0.000215893
2 *1673:X 0.000215893
3 *1785:D *1672:A0 0
4 *1785:D *1672:S 3.23663e-05
5 *1785:D *1673:A 3.00381e-05
6 *1785:D *1787:CLK 4.80285e-05
7 *1785:D *1850:A 1.56477e-05
8 *1785:D *1883:A 0.000123225
9 *1785:D *388:80 6.52265e-05
10 *1785:D *407:6 4.82863e-05
*RES
1 *1673:X *1785:D 11.295 
*END

*D_NET *112 0.000398396
*CONN
*I *1786:D I *D sky130_fd_sc_hd__dfrtp_1
*I *1671:X O *D sky130_fd_sc_hd__a22o_1
*CAP
1 *1786:D 0.000115754
2 *1671:X 0.000115754
3 *1786:D *1636:A0 0.000115945
4 *1786:D *1671:A2 5.09431e-05
*RES
1 *1671:X *1786:D 9.375 
*END

*D_NET *113 0.000722261
*CONN
*I *1787:D I *D sky130_fd_sc_hd__dfrtp_1
*I *1670:X O *D sky130_fd_sc_hd__clkbuf_1
*CAP
1 *1787:D 0.000262375
2 *1670:X 0.000262375
3 *1787:D *1677:A0 4.6368e-06
4 *1787:D *1677:A1 7.01359e-05
5 *1787:D *1731:A 5.41483e-05
6 *1787:D *1787:CLK 6.85905e-05
*RES
1 *1670:X *1787:D 10.8638 
*END

*D_NET *114 0.000602595
*CONN
*I *1788:D I *D sky130_fd_sc_hd__dfrtp_2
*I *1668:X O *D sky130_fd_sc_hd__a32o_1
*CAP
1 *1788:D 0.000233973
2 *1668:X 0.000233973
3 *1788:D *1594:A2 0
4 *1788:D *1594:A3 5.02217e-05
5 *1788:D *162:22 1.35779e-05
6 *1788:D *390:25 7.08493e-05
*RES
1 *1668:X *1788:D 10.605 
*END

*D_NET *115 0.000610641
*CONN
*I *1789:D I *D sky130_fd_sc_hd__dfrtp_1
*I *1667:Y O *D sky130_fd_sc_hd__o21ai_1
*CAP
1 *1789:D 0.000243287
2 *1667:Y 0.000243287
3 *1789:D *360:132 9.46996e-05
4 *1789:D *481:41 2.93678e-05
*RES
1 *1667:Y *1789:D 11.715 
*END

*D_NET *116 0.00132798
*CONN
*I *1790:D I *D sky130_fd_sc_hd__dfrtp_1
*I *1661:X O *D sky130_fd_sc_hd__a31o_1
*CAP
1 *1790:D 0.000233293
2 *1661:X 0.000233293
3 *1790:D *1553:A 7.06865e-05
4 *1790:D *1658:A1 3.60738e-06
5 *1790:D *1742:A 0.000150703
6 *1790:D *238:10 0.000415319
7 *1790:D *361:42 9.2741e-05
8 *1790:D *383:156 0.000128331
*RES
1 *1661:X *1790:D 13.995 
*END

*D_NET *117 0.000902206
*CONN
*I *1791:D I *D sky130_fd_sc_hd__dfrtp_1
*I *1659:X O *D sky130_fd_sc_hd__a31o_1
*CAP
1 *1791:D 0.000369768
2 *1659:X 0.000369768
3 *1791:D *1791:CLK 0.000135033
4 *1791:D *485:8 2.76356e-05
*RES
1 *1659:X *1791:D 9.17 
*END

*D_NET *118 0.000923368
*CONN
*I *1792:D I *D sky130_fd_sc_hd__dfrtp_1
*I *1657:X O *D sky130_fd_sc_hd__a31o_1
*CAP
1 *1792:D 0.000289969
2 *1657:X 0.000289969
3 *1792:D *1649:B1 1.34594e-05
4 *1792:D *1656:A2 3.75725e-05
5 *1792:D *1657:A3 4.82863e-05
6 *1792:D *266:51 2.10034e-05
7 *1792:D *303:63 4.82919e-05
8 *1792:D *383:99 0.00011577
9 *1792:D *486:35 5.90469e-05
*RES
1 *1657:X *1792:D 12.24 
*END

*D_NET *119 0.000404061
*CONN
*I *1793:D I *D sky130_fd_sc_hd__dfrtp_1
*I *1655:X O *D sky130_fd_sc_hd__a31o_1
*CAP
1 *1793:D 0.000118607
2 *1655:X 0.000118607
3 *1793:D *1651:A3 4.04214e-05
4 *1793:D *1651:B1 0
5 *1793:D *1655:A3 5.06182e-05
6 *1793:D *303:73 2.75145e-05
7 *1793:D *387:52 4.82919e-05
*RES
1 *1655:X *1793:D 9.48 
*END

*D_NET *120 0.000316957
*CONN
*I *1794:D I *D sky130_fd_sc_hd__dfrtp_1
*I *1653:X O *D sky130_fd_sc_hd__a31o_1
*CAP
1 *1794:D 0.00011196
2 *1653:X 0.00011196
3 *1794:D *1777:CLK 3.67779e-05
4 *1794:D *303:73 3.00381e-05
5 *1794:D *383:86 0
6 *1794:D *387:29 1.75055e-05
7 *1794:D *488:16 8.7152e-06
*RES
1 *1653:X *1794:D 9.03 
*END

*D_NET *121 0.000673917
*CONN
*I *1795:D I *D sky130_fd_sc_hd__dfrtp_1
*I *1651:X O *D sky130_fd_sc_hd__a31o_1
*CAP
1 *1795:D 0.000192741
2 *1651:X 0.000192741
3 *1795:D *1793:CLK 0.000163436
4 *1795:D *360:24 3.20545e-05
5 *1795:D *360:113 5.07376e-05
6 *1795:D *387:76 4.22064e-05
*RES
1 *1651:X *1795:D 10.41 
*END

*D_NET *122 0.000326529
*CONN
*I *1796:D I *D sky130_fd_sc_hd__dfrtp_1
*I *1649:X O *D sky130_fd_sc_hd__a31o_1
*CAP
1 *1796:D 9.40947e-05
2 *1649:X 9.40947e-05
3 *1796:D *1677:A0 4.77807e-05
4 *1796:D *486:35 9.05592e-05
*RES
1 *1649:X *1796:D 8.775 
*END

*D_NET *123 0.000549804
*CONN
*I *1797:D I *D sky130_fd_sc_hd__dfrtp_2
*I *1647:X O *D sky130_fd_sc_hd__a221o_1
*CAP
1 *1797:D 0.000124476
2 *1647:X 0.000124476
3 *1797:D *1681:A0 8.53113e-06
4 *1797:D *1790:CLK 0.000116158
5 *1797:D *153:41 2.03321e-05
6 *1797:D *163:22 3.23391e-05
7 *1797:D *473:8 0.00012349
*RES
1 *1647:X *1797:D 9.72 
*END

*D_NET *124 0.000421112
*CONN
*I *1798:D I *D sky130_fd_sc_hd__dfrtp_4
*I *1643:X O *D sky130_fd_sc_hd__clkbuf_1
*CAP
1 *1798:D 0.000118819
2 *1643:X 0.000118819
3 *1798:D *382:76 7.4027e-05
4 *1798:D *384:43 7.4027e-05
5 *1798:D *387:115 3.5421e-05
*RES
1 *1643:X *1798:D 9.57 
*END

*D_NET *125 0.000667293
*CONN
*I *1799:D I *D sky130_fd_sc_hd__dfrtp_2
*I *1641:X O *D sky130_fd_sc_hd__clkbuf_1
*CAP
1 *1799:D 0.000179532
2 *1641:X 0.000179532
3 *1799:D *259:135 1.19028e-05
4 *1799:D *477:12 0.000194688
5 *1799:D *478:23 0.000101637
*RES
1 *1641:X *1799:D 11.505 
*END

*D_NET *126 0.00104045
*CONN
*I *1800:D I *D sky130_fd_sc_hd__dfrtp_4
*I *1639:X O *D sky130_fd_sc_hd__clkbuf_1
*CAP
1 *1800:D 0.000199453
2 *1639:X 0.000199453
3 *1800:D *1638:A0 7.98512e-05
4 *1800:D *1638:A1 0.000196016
5 *1800:D *1639:A 8.41307e-05
6 *1800:D *1691:A0 3.44774e-05
7 *1800:D *1799:CLK 7.15106e-05
8 *1800:D *259:135 9.14222e-05
9 *1800:D *387:29 8.41307e-05
*RES
1 *1639:X *1800:D 12.765 
*END

*D_NET *127 0.00046287
*CONN
*I *1801:D I *D sky130_fd_sc_hd__dfrtp_4
*I *1637:X O *D sky130_fd_sc_hd__clkbuf_1
*CAP
1 *1801:D 0.000152383
2 *1637:X 0.000152383
3 *1801:D *256:59 5.20263e-05
4 *1801:D *390:42 4.08514e-05
5 *1801:D *390:53 6.52265e-05
*RES
1 *1637:X *1801:D 5.735 
*END

*D_NET *128 0.000445262
*CONN
*I *1802:D I *D sky130_fd_sc_hd__dfrtp_4
*I *1635:X O *D sky130_fd_sc_hd__clkbuf_1
*CAP
1 *1802:D 0.000158155
2 *1635:X 0.000158155
3 *1802:D *1634:A0 5.35969e-06
4 *1802:D *1775:CLK 3.05295e-05
5 *1802:D *387:125 2.75229e-05
6 *1802:D *387:140 6.55406e-05
*RES
1 *1635:X *1802:D 9.99 
*END

*D_NET *129 0.000222001
*CONN
*I *1803:D I *D sky130_fd_sc_hd__dfrtp_4
*I *1633:X O *D sky130_fd_sc_hd__clkbuf_1
*CAP
1 *1803:D 6.84856e-05
2 *1633:X 6.84856e-05
3 *1803:D *1632:A0 0
4 *1803:D *1633:A 8.08439e-05
5 *1803:D *1803:CLK 4.18603e-06
*RES
1 *1633:X *1803:D 8.835 
*END

*D_NET *130 0.000506175
*CONN
*I *1804:D I *D sky130_fd_sc_hd__dfrtp_4
*I *1631:X O *D sky130_fd_sc_hd__clkbuf_1
*CAP
1 *1804:D 0.000226632
2 *1631:X 0.000226632
3 *1804:D *1749:A 5.29106e-05
*RES
1 *1631:X *1804:D 11.01 
*END

*D_NET *131 0.000674837
*CONN
*I *1805:D I *D sky130_fd_sc_hd__dfrtp_4
*I *1629:X O *D sky130_fd_sc_hd__clkbuf_1
*CAP
1 *1805:D 0.000152827
2 *1629:X 0.000152827
3 *1805:D *1628:S 6.38291e-05
4 *1805:D *1636:S 9.06931e-05
5 *1805:D *339:154 7.5416e-05
6 *1805:D *381:90 0.000139245
*RES
1 *1629:X *1805:D 11.01 
*END

*D_NET *132 0.00155545
*CONN
*I *1806:D I *D sky130_fd_sc_hd__dfrtp_1
*I *1626:X O *D sky130_fd_sc_hd__a22o_1
*CAP
1 *1806:D 0.000486479
2 *1626:X 0.000486479
3 *1806:D *1626:A1 7.03219e-05
4 *1806:D *1691:A0 0.000322865
5 *1806:D *1832:A 4.77807e-05
6 *1806:D *314:40 7.33283e-05
7 *1806:D *461:14 6.81928e-05
*RES
1 *1626:X *1806:D 16.875 
*END

*D_NET *133 0.00223157
*CONN
*I *1807:D I *D sky130_fd_sc_hd__dfrtp_1
*I *1621:X O *D sky130_fd_sc_hd__a22o_1
*CAP
1 *1807:D 0.000884898
2 *1621:X 0.000884898
3 *1807:D *1621:A1 6.27438e-05
4 *1807:D *1621:A2 8.57024e-05
5 *1807:D *1827:A 0.000197252
6 *1807:D *383:48 0
7 *1807:D *387:93 6.90438e-05
8 *1807:RESET_B *1807:D 4.70343e-05
*RES
1 *1621:X *1807:D 21.36 
*END

*D_NET *134 0.00106989
*CONN
*I *1808:D I *D sky130_fd_sc_hd__dfrtp_1
*I *1617:X O *D sky130_fd_sc_hd__a21bo_1
*CAP
1 *1808:D 0.000460462
2 *1617:X 0.000460462
3 *1808:D *1617:A1 6.33103e-05
4 *1808:D *1617:B1_N 3.1562e-06
5 *1808:D *1675:A1 1.77595e-05
6 *1808:D *360:132 6.47357e-05
*RES
1 *1617:X *1808:D 12.825 
*END

*D_NET *135 0.00175622
*CONN
*I *1809:D I *D sky130_fd_sc_hd__dfrtp_2
*I *1610:X O *D sky130_fd_sc_hd__a22o_1
*CAP
1 *1809:D 0.000638112
2 *1610:X 0.000638112
3 *1809:D *1600:B2 0.000158552
4 *1809:D *1683:A0 3.54721e-05
5 *1809:D *1833:A 2.68464e-05
6 *1809:D *163:61 0.000194201
7 *1809:D *388:18 2.36882e-05
8 *1809:D *388:65 4.12409e-05
*RES
1 *1610:X *1809:D 16.095 
*END

*D_NET *136 0.000387266
*CONN
*I *1810:D I *D sky130_fd_sc_hd__dfrtp_2
*I *1605:X O *D sky130_fd_sc_hd__a21o_1
*CAP
1 *1810:D 0.000119748
2 *1605:X 0.000119748
3 *1810:D *359:18 0
4 *1810:D *388:122 5.39961e-05
5 *1810:D *388:139 9.37731e-05
6 *1810:RESET_B *1810:D 0
*RES
1 *1605:X *1810:D 9.285 
*END

*D_NET *137 0.000714829
*CONN
*I *1811:D I *D sky130_fd_sc_hd__dfrtp_2
*I *1600:X O *D sky130_fd_sc_hd__a22o_1
*CAP
1 *1811:D 0.000259382
2 *1600:X 0.000259382
3 *1811:D *1600:A1 4.77807e-05
4 *1811:D *1669:A0 0.000121369
5 *1811:D *388:74 2.69153e-05
6 *1811:D *471:18 0
7 *1811:RESET_B *1811:D 0
*RES
1 *1600:X *1811:D 12.03 
*END

*D_NET *138 0.000332042
*CONN
*I *1812:D I *D sky130_fd_sc_hd__dfrtp_2
*I *1595:X O *D sky130_fd_sc_hd__a22o_1
*CAP
1 *1812:D 5.74541e-05
2 *1595:X 5.74541e-05
3 *1812:D *1595:A1 4.04574e-05
4 *1812:D *1812:CLK 4.89395e-05
5 *1812:D *385:100 0.000127737
*RES
1 *1595:X *1812:D 5.15 
*END

*D_NET *139 0.000487171
*CONN
*I *1813:D I *D sky130_fd_sc_hd__dfrtp_4
*I *1587:X O *D sky130_fd_sc_hd__a2bb2o_1
*CAP
1 *1813:D 0.000147419
2 *1587:X 0.000147419
3 *1813:D *1667:A2 0.000123492
4 *1813:D *1674:A1_N 6.88421e-05
*RES
1 *1587:X *1813:D 9.465 
*END

*D_NET *140 0.00114219
*CONN
*I *1814:D I *D sky130_fd_sc_hd__dfrtp_4
*I *1583:Y O *D sky130_fd_sc_hd__o2bb2ai_1
*CAP
1 *1814:D 0.000433671
2 *1583:Y 0.000433671
3 *1814:D *1583:A1_N 0.000122331
4 *1814:D *1642:A0 7.06865e-05
5 *1814:D *1693:A0 3.64998e-06
6 *1814:D *389:90 5.83121e-06
7 *1814:RESET_B *1814:D 7.23533e-05
*RES
1 *1583:Y *1814:D 12.885 
*END

*D_NET *141 0.00168366
*CONN
*I *1815:D I *D sky130_fd_sc_hd__dfrtp_4
*I *1576:X O *D sky130_fd_sc_hd__a22o_1
*CAP
1 *1815:D 0.000745774
2 *1576:X 0.000745774
3 *1815:D *1576:B1 0.000159741
4 *1815:D *1576:B2 3.23663e-05
*RES
1 *1576:X *1815:D 14.12 
*END

*D_NET *142 0.00211734
*CONN
*I *1816:D I *D sky130_fd_sc_hd__dfrtp_2
*I *1572:Y O *D sky130_fd_sc_hd__nand2_1
*CAP
1 *1816:D 0.000939376
2 *1572:Y 0.000939376
3 *1816:D *1514:A 3.21081e-06
4 *1816:D *1571:A 1.19928e-05
5 *1816:D *1571:B 8.85669e-06
6 *1816:D *1572:A 4.7072e-06
7 *1816:D *1572:B 2.88357e-05
8 *1816:D *1780:CLK 2.01737e-05
9 *1816:D *462:8 9.15924e-05
10 *1816:D *462:19 6.92161e-05
*RES
1 *1572:Y *1816:D 14.375 
*END

*D_NET *143 0.00102598
*CONN
*I *1817:D I *D sky130_fd_sc_hd__dfrtp_2
*I *1561:X O *D sky130_fd_sc_hd__a22o_1
*CAP
1 *1817:D 0.000272651
2 *1561:X 0.000272651
3 *1817:D *1514:B 0.000178451
4 *1817:D *1560:A1 9.0649e-05
5 *1817:D *1560:A3 3.72007e-05
6 *1817:D *1560:B1 1.43439e-05
7 *1817:D *1841:A 0
8 *1817:D *149:118 3.79318e-05
9 *1817:D *380:67 0.000122101
*RES
1 *1561:X *1817:D 13.485 
*END

*D_NET *144 0.000811401
*CONN
*I *1818:D I *D sky130_fd_sc_hd__dfrtp_1
*I *1552:Y O *D sky130_fd_sc_hd__nand2_1
*CAP
1 *1818:D 0.000277793
2 *1552:Y 0.000277793
3 *1818:D *1552:A 7.09895e-05
4 *1818:D *1560:A1 0.000108453
5 *1818:D *1724:A 0
6 *1818:D *1764:A 5.62014e-05
7 *1818:D *463:8 2.0172e-05
*RES
1 *1552:Y *1818:D 12.63 
*END

*D_NET *145 0.000514998
*CONN
*I *1819:D I *D sky130_fd_sc_hd__dfrtp_1
*I *1542:Y O *D sky130_fd_sc_hd__o2bb2ai_1
*CAP
1 *1819:D 0.000247412
2 *1542:Y 0.000247412
3 *1819:D *1518:A 0
4 *1819:D *161:86 2.01737e-05
*RES
1 *1542:Y *1819:D 11.07 
*END

*D_NET *146 0.000766336
*CONN
*I *1820:D I *D sky130_fd_sc_hd__dfrtp_2
*I *1532:X O *D sky130_fd_sc_hd__a2bb2o_1
*CAP
1 *1820:D 0.000217104
2 *1532:X 0.000217104
3 *1820:D *1534:A3 2.68526e-05
4 *1820:D *1646:C 0.000256983
5 *1820:D *153:117 4.82919e-05
6 *1820:D *466:57 0
*RES
1 *1532:X *1820:D 11.265 
*END

*D_NET *147 0.000775115
*CONN
*I *1421:A I *D sky130_fd_sc_hd__clkbuf_4
*I *1491:A2 I *D sky130_fd_sc_hd__o21bai_1
*I *1420:X O *D sky130_fd_sc_hd__and2b_1
*CAP
1 *1421:A 0
2 *1491:A2 0.000191344
3 *1420:X 0.000161638
4 *147:14 0.000352982
5 *1491:A2 *218:8 3.26889e-05
6 *1491:A2 *477:23 3.64622e-05
7 *147:14 *477:23 0
8 *147:14 *492:66 0
*RES
1 *1420:X *147:14 7.97 
2 *147:14 *1491:A2 4.48 
3 *147:14 *1421:A 1.6 
*END

*D_NET *148 0.012196
*CONN
*I *1451:B1 I *D sky130_fd_sc_hd__a21oi_2
*I *1453:A2 I *D sky130_fd_sc_hd__o21bai_1
*I *1422:A I *D sky130_fd_sc_hd__clkbuf_4
*I *1496:C1 I *D sky130_fd_sc_hd__a211o_1
*I *1484:A1 I *D sky130_fd_sc_hd__o21ai_1
*I *1480:A1 I *D sky130_fd_sc_hd__o21ai_1
*I *1618:A1 I *D sky130_fd_sc_hd__o22a_1
*I *1537:A I *D sky130_fd_sc_hd__nor2_4
*I *1623:B2 I *D sky130_fd_sc_hd__o32a_1
*I *1506:C1 I *D sky130_fd_sc_hd__a211o_1
*I *1421:X O *D sky130_fd_sc_hd__clkbuf_4
*CAP
1 *1451:B1 0
2 *1453:A2 0.00026417
3 *1422:A 0
4 *1496:C1 0.000197214
5 *1484:A1 0
6 *1480:A1 0
7 *1618:A1 0
8 *1537:A 0.000392883
9 *1623:B2 0.000280689
10 *1506:C1 0
11 *1421:X 0.000603631
12 *148:51 0.000727359
13 *148:45 0.000385357
14 *148:43 0.000374022
15 *148:41 0.000187932
16 *148:39 0.000559437
17 *148:35 0.000393407
18 *148:26 0.000318609
19 *148:20 0.000435331
20 *148:16 0.000632847
21 *1453:A2 *1456:A1 0.000143434
22 *1453:A2 *1458:A2 8.63585e-05
23 *1453:A2 *1461:C 4.01778e-05
24 *1453:A2 *1505:A1 2.86975e-05
25 *1453:A2 *1505:A2 2.68464e-05
26 *1453:A2 *1505:B1 2.68526e-05
27 *1453:A2 *1507:A 2.69267e-05
28 *1453:A2 *1609:A2 1.08758e-05
29 *1453:A2 *178:12 0.00036724
30 *1453:A2 *181:53 1.23467e-05
31 *1453:A2 *480:75 0.000155749
32 *1496:C1 *1481:B1 0.000115076
33 *1496:C1 *1496:B1 3.02108e-05
34 *1496:C1 *1498:A 0.000276462
35 *1496:C1 *1498:B 5.29658e-05
36 *1496:C1 *469:45 0.000276462
37 *1496:C1 *479:41 4.11718e-05
38 *1537:A *1495:B1 8.23457e-05
39 *1537:A *1619:C1 3.66286e-05
40 *1537:A *263:92 5.33559e-05
41 *1623:B2 *1619:C1 0.000119762
42 *1623:B2 *1623:B1 0.000409972
43 *1623:B2 *149:43 0.000221352
44 *148:16 *1420:B 0
45 *148:16 *1444:A2 7.07947e-05
46 *148:16 *1451:A1 0.000118081
47 *148:16 *1461:C 2.16917e-05
48 *148:16 *170:25 7.36562e-05
49 *148:16 *170:31 0.000154004
50 *148:16 *170:50 0
51 *148:16 *178:12 2.0514e-05
52 *148:16 *254:33 7.21296e-06
53 *148:16 *266:28 0.000281006
54 *148:16 *492:66 0.000112631
55 *148:20 *1461:C 1.34503e-05
56 *148:20 *178:12 5.94962e-05
57 *148:26 *1429:B 8.7152e-06
58 *148:26 *166:71 7.07879e-05
59 *148:26 *166:73 2.78732e-05
60 *148:26 *480:94 0.000223143
61 *148:26 *492:44 0.000398356
62 *148:35 *1424:A 0.000411666
63 *148:35 *1506:A1 4.66108e-05
64 *148:35 *1506:A2 0.000119873
65 *148:35 *1507:C 5.16479e-05
66 *148:35 *469:45 6.87729e-05
67 *148:39 *149:20 1.05984e-05
68 *148:39 *469:45 0.000252928
69 *148:41 *1486:B 7.01132e-05
70 *148:41 *149:20 2.72392e-05
71 *148:41 *478:53 0.000151474
72 *148:43 *1480:A2 9.80032e-06
73 *148:43 *1480:B1 2.49909e-05
74 *148:43 *1486:B 9.22206e-05
75 *148:43 *207:10 4.47209e-05
76 *148:43 *478:53 5.83121e-06
77 *148:45 *1486:B 6.72833e-06
78 *148:45 *152:29 9.80943e-06
79 *148:45 *207:10 0.000332237
80 *148:45 *339:61 8.63479e-05
81 *148:45 *468:53 8.35157e-05
82 *148:51 *153:27 9.01421e-05
83 *148:51 *222:8 0.000134866
84 *148:51 *222:21 8.33066e-06
*RES
1 *1421:X *148:16 17.18 
2 *148:16 *148:20 0.81 
3 *148:20 *148:26 8.695 
4 *148:26 *1506:C1 1.6 
5 *148:26 *148:35 4.95 
6 *148:35 *148:39 4.605 
7 *148:39 *148:41 3.21 
8 *148:41 *148:43 1.485 
9 *148:43 *148:45 7.005 
10 *148:45 *148:51 5.635 
11 *148:51 *1623:B2 11.69 
12 *148:51 *1537:A 6.37 
13 *148:45 *1618:A1 1.6 
14 *148:43 *1480:A1 1.6 
15 *148:41 *1484:A1 1.6 
16 *148:39 *1496:C1 11.48 
17 *148:35 *1422:A 1.6 
18 *148:20 *1453:A2 12.83 
19 *148:16 *1451:B1 1.6 
*END

*D_NET *149 0.025419
*CONN
*I *1568:A1 I *D sky130_fd_sc_hd__o21ai_1
*I *1560:A2 I *D sky130_fd_sc_hd__o31a_1
*I *1534:A2 I *D sky130_fd_sc_hd__o31a_1
*I *1437:A1 I *D sky130_fd_sc_hd__o221ai_1
*I *1594:A2 I *D sky130_fd_sc_hd__o31a_1
*I *1548:A1 I *D sky130_fd_sc_hd__o21ai_1
*I *1569:A2 I *D sky130_fd_sc_hd__o31a_1
*I *1575:A2 I *D sky130_fd_sc_hd__o31a_1
*I *1615:A1 I *D sky130_fd_sc_hd__o221ai_1
*I *1644:A1 I *D sky130_fd_sc_hd__o21ai_1
*I *1422:X O *D sky130_fd_sc_hd__clkbuf_4
*CAP
1 *1568:A1 9.79788e-05
2 *1560:A2 2.15084e-05
3 *1534:A2 6.72101e-05
4 *1437:A1 1.06067e-05
5 *1594:A2 0.000754424
6 *1548:A1 0.000193365
7 *1569:A2 0
8 *1575:A2 0
9 *1615:A1 1.23867e-05
10 *1644:A1 0.000144473
11 *1422:X 0.0011812
12 *149:141 0.000814092
13 *149:126 0.000370731
14 *149:118 0.00119875
15 *149:104 0.00146234
16 *149:85 0.000676516
17 *149:74 0.00026442
18 *149:70 0.00153314
19 *149:43 0.00203154
20 *149:20 0.00193517
21 *1437:A1 *1532:A1_N 2.57422e-05
22 *1437:A1 *161:78 4.77757e-05
23 *1534:A2 *1534:A1 3.4026e-05
24 *1534:A2 *266:155 1.72577e-05
25 *1548:A1 *1437:C1 5.53774e-05
26 *1548:A1 *1550:A2 8.49205e-05
27 *1548:A1 *153:104 0.000250009
28 *1548:A1 *381:54 0.000572609
29 *1560:A2 *1560:A3 3.09774e-05
30 *1560:A2 *1571:B 2.86691e-05
31 *1568:A1 *1566:B1 3.12916e-05
32 *1568:A1 *1568:A2 5.32266e-05
33 *1568:A1 *1570:A1 1.14192e-05
34 *1568:A1 *288:25 1.74776e-05
35 *1568:A1 *462:19 0.000130729
36 *1594:A2 *1526:B1 5.27253e-05
37 *1594:A2 *1532:A2_N 3.82741e-05
38 *1594:A2 *1535:A 0.00015264
39 *1594:A2 *1594:A1 6.72833e-06
40 *1594:A2 *1594:A3 0
41 *1594:A2 *1646:C 0.000281288
42 *1594:A2 *161:66 0.000289371
43 *1594:A2 *161:78 7.80605e-05
44 *1594:A2 *162:22 3.34533e-05
45 *1594:A2 *252:25 1.83428e-05
46 *1594:A2 *313:12 1.09869e-05
47 *1594:A2 *359:95 4.08524e-05
48 *1594:A2 *385:100 4.77757e-05
49 *1615:A1 *1616:C1 4.77757e-05
50 *1615:A1 *331:8 2.68526e-05
51 *1644:A1 *1645:B1 4.66742e-05
52 *1644:A1 *476:8 0.000120655
53 *1644:A1 *476:15 0.000234674
54 *149:20 *1427:A 0.000140912
55 *149:20 *1497:A1 4.82919e-05
56 *149:20 *152:12 5.46798e-05
57 *149:20 *469:45 0.000467438
58 *149:20 *476:15 0.000845158
59 *149:20 *476:32 0.00012406
60 *149:20 *476:45 5.83121e-06
61 *149:20 *478:36 0.000132875
62 *149:20 *478:53 0.000195865
63 *149:43 *1500:A 5.89976e-05
64 *149:43 *1614:A1_N 0.00024194
65 *149:43 *1614:B1 4.22316e-06
66 *149:43 *1615:B1 3.04982e-05
67 *149:43 *1615:B2 3.68773e-05
68 *149:43 *1616:A2 2.97004e-06
69 *149:43 *1618:B1 0.000215837
70 *149:43 *1619:A2 0.000160218
71 *149:43 *1621:B1 0
72 *149:43 *1623:B1 4.14009e-05
73 *149:43 *153:27 0
74 *149:43 *153:41 0
75 *149:43 *214:23 0.000129082
76 *149:43 *222:8 3.35575e-05
77 *149:43 *222:21 0.000107383
78 *149:70 *1568:A2 1.52184e-05
79 *149:70 *1574:B2 0.000311008
80 *149:70 *1580:B1 0.000588662
81 *149:70 *1581:A2 0.000202089
82 *149:70 *1581:B1 0.000125389
83 *149:70 *1616:A2 9.49203e-05
84 *149:70 *1659:A3 8.76348e-06
85 *149:70 *1679:A0 0.000215992
86 *149:70 *161:20 0.000348085
87 *149:70 *161:33 2.27398e-05
88 *149:70 *239:34 0.000111787
89 *149:70 *254:63 0
90 *149:70 *254:82 0.000244903
91 *149:70 *255:10 5.64143e-05
92 *149:70 *278:42 3.86607e-05
93 *149:70 *288:25 3.77681e-05
94 *149:70 *306:12 4.31189e-05
95 *149:70 *462:19 5.16418e-05
96 *149:70 *462:23 0.000331159
97 *149:70 *474:57 0.000118513
98 *149:74 *381:54 4.82919e-05
99 *149:85 *1569:A3 0.000114483
100 *149:85 *153:43 8.23457e-05
101 *149:85 *153:63 0.000239813
102 *149:85 *288:25 0
103 *149:85 *381:54 1.12578e-05
104 *149:104 *1569:A1 0.000132261
105 *149:104 *1569:A3 9.12494e-06
106 *149:104 *1569:B1 0.000132261
107 *149:104 *1571:B 1.4174e-05
108 *149:104 *1679:A0 1.18673e-05
109 *149:104 *162:126 0.000690474
110 *149:104 *241:10 0.000122797
111 *149:104 *463:29 7.9642e-06
112 *149:118 *1560:A3 8.66466e-06
113 *149:118 *1561:B2 3.75882e-06
114 *149:118 *1729:A 6.20044e-05
115 *149:118 *162:112 0.000602548
116 *149:118 *162:126 0.000402438
117 *149:126 *161:86 0.000323058
118 *149:126 *266:155 0.000161747
119 *149:141 *1437:C1 1.12578e-05
120 *149:141 *1532:A1_N 7.05268e-05
121 *149:141 *153:104 5.84759e-05
122 *149:141 *161:78 6.6852e-05
123 *1623:B2 *149:43 0.000221352
124 *1788:D *1594:A2 0
125 *1817:D *149:118 3.79318e-05
126 *148:39 *149:20 1.05984e-05
127 *148:41 *149:20 2.72392e-05
*RES
1 *1422:X *149:20 26.795 
2 *149:20 *1644:A1 4.81 
3 *149:20 *149:43 16.01 
4 *149:43 *1615:A1 4.05 
5 *149:43 *149:70 27.1333 
6 *149:70 *149:74 2.45 
7 *149:74 *1575:A2 1.6 
8 *149:74 *149:85 6.59 
9 *149:85 *1569:A2 3.6 
10 *149:85 *149:104 12.32 
11 *149:104 *149:118 6.7781 
12 *149:118 *149:126 5.93 
13 *149:126 *1548:A1 8.38 
14 *149:126 *149:141 1.845 
15 *149:141 *1594:A2 19.3193 
16 *149:141 *1437:A1 2.05 
17 *149:118 *1534:A2 4.755 
18 *149:104 *1560:A2 2.755 
19 *149:70 *1568:A1 6.045 
*END

*D_NET *150 0.0171731
*CONN
*I *1521:A2 I *D sky130_fd_sc_hd__a311o_1
*I *1432:B I *D sky130_fd_sc_hd__and3_2
*I *1546:A2 I *D sky130_fd_sc_hd__a31o_1
*I *1431:A2 I *D sky130_fd_sc_hd__a21oi_2
*I *1696:A1 I *D sky130_fd_sc_hd__a22o_1
*I *1425:A I *D sky130_fd_sc_hd__nor2_2
*I *1481:A2 I *D sky130_fd_sc_hd__a211o_1
*I *1485:A2 I *D sky130_fd_sc_hd__a211o_1
*I *1445:B I *D sky130_fd_sc_hd__nand2_4
*I *1660:B2 I *D sky130_fd_sc_hd__a22o_1
*I *1423:X O *D sky130_fd_sc_hd__buf_4
*CAP
1 *1521:A2 9.61052e-05
2 *1432:B 0.000183251
3 *1546:A2 3.55506e-05
4 *1431:A2 1.36534e-05
5 *1696:A1 0.0019616
6 *1425:A 0
7 *1481:A2 0.000142533
8 *1485:A2 5.79097e-05
9 *1445:B 0
10 *1660:B2 0.000740792
11 *1423:X 0
12 *150:117 0.000349923
13 *150:113 0.00033641
14 *150:102 0.000565909
15 *150:56 0.000305639
16 *150:48 0.000447859
17 *150:40 0.00261022
18 *150:36 0.00074903
19 *150:8 0.000867221
20 *150:4 0.000126428
21 *1431:A2 *1431:A1 4.66108e-05
22 *1431:A2 *163:111 4.66108e-05
23 *1432:B *1432:A 8.73389e-06
24 *1432:B *1546:A1 2.21606e-05
25 *1432:B *1546:B1 8.74682e-06
26 *1432:B *483:40 4.29198e-05
27 *1481:A2 *1481:A1 0.000151209
28 *1481:A2 *1485:A1 0.000109489
29 *1481:A2 *1658:A1 2.38054e-05
30 *1481:A2 *223:14 9.88165e-05
31 *1481:A2 *228:39 1.06624e-05
32 *1485:A2 *1484:B1 6.54361e-06
33 *1485:A2 *1485:A1 5.05981e-05
34 *1485:A2 *1486:B 2.79232e-05
35 *1485:A2 *1658:A1 8.74345e-06
36 *1485:A2 *210:8 9.42919e-06
37 *1485:A2 *481:41 9.45099e-07
38 *1521:A2 *1521:A1 1.16578e-05
39 *1521:A2 *1521:A3 2.92091e-05
40 *1521:A2 *1521:C1 0.000160186
41 *1521:A2 *1547:A2 7.23602e-05
42 *1521:A2 *151:85 4.92206e-05
43 *1521:A2 *200:44 5.23362e-05
44 *1521:A2 *246:33 2.0514e-05
45 *1660:B2 *1648:A1 3.86814e-05
46 *1660:B2 *1658:A1 0.000698878
47 *1660:B2 *1660:A1 4.89295e-05
48 *1660:B2 *160:35 1.9872e-05
49 *1660:B2 *238:10 0.000149942
50 *1660:B2 *277:17 0.000133875
51 *1660:B2 *491:8 0.000151224
52 *1696:A1 *1604:B1 2.50813e-05
53 *1696:A1 *1605:A2 8.7152e-06
54 *1696:A1 *228:39 0.000945435
55 *1696:A1 *259:129 0.000439675
56 *1696:A1 *278:125 1.88602e-05
57 *1696:A1 *359:18 9.5799e-06
58 *150:8 *1423:A 0.000123225
59 *150:8 *1445:A 2.50206e-05
60 *150:8 *238:10 0.000345436
61 *150:40 *1428:A 0.000198156
62 *150:40 *1447:B 0
63 *150:40 *155:8 0
64 *150:40 *157:12 0
65 *150:40 *479:26 0.000334794
66 *150:48 *1497:B1 7.96104e-06
67 *150:48 *166:36 1.12156e-05
68 *150:48 *166:47 5.31158e-06
69 *150:48 *228:39 0.000498885
70 *150:56 *1425:B 1.22325e-05
71 *150:56 *1485:A1 1.25039e-05
72 *150:56 *210:8 7.93325e-05
73 *150:56 *481:41 0.000205716
74 *150:102 *1474:A2 0.000355015
75 *150:102 *1540:A 0
76 *150:102 *151:74 0.000207376
77 *150:102 *157:12 0
78 *150:102 *200:25 0.00016422
79 *150:102 *386:14 6.21133e-05
80 *150:102 *479:26 0.000652217
81 *150:113 *151:74 1.10951e-05
82 *150:113 *151:85 0.000154136
83 *150:113 *200:25 0.000240311
84 *150:113 *200:44 6.28498e-05
85 *150:117 *1432:A 8.73389e-06
86 *150:117 *151:89 2.20732e-05
87 *150:117 *200:50 2.49909e-05
*RES
1 *1423:X *150:4 1.6 
2 *150:4 *150:8 3.57 
3 *150:8 *1660:B2 21.35 
4 *150:8 *1445:B 1.6 
5 *150:4 *150:36 2 
6 *150:36 *150:40 6.8525 
7 *150:40 *150:48 3.52797 
8 *150:48 *150:56 4.895 
9 *150:56 *1485:A2 4.8825 
10 *150:56 *1481:A2 7.08 
11 *150:48 *1425:A 1.6 
12 *150:40 *1696:A1 8.44917 
13 *150:36 *150:102 12.345 
14 *150:102 *1431:A2 4.05 
15 *150:102 *150:113 3.675 
16 *150:113 *150:117 3.485 
17 *150:117 *1546:A2 2.215 
18 *150:117 *1432:B 3.775 
19 *150:113 *1521:A2 6.555 
*END

*D_NET *151 0.00867952
*CONN
*I *1521:A3 I *D sky130_fd_sc_hd__a311o_1
*I *1432:A I *D sky130_fd_sc_hd__and3_2
*I *1546:A3 I *D sky130_fd_sc_hd__a31o_1
*I *1431:A1 I *D sky130_fd_sc_hd__a21oi_2
*I *1445:A I *D sky130_fd_sc_hd__nand2_4
*I *1425:B I *D sky130_fd_sc_hd__nor2_2
*I *1485:A1 I *D sky130_fd_sc_hd__a211o_1
*I *1481:A1 I *D sky130_fd_sc_hd__a211o_1
*I *1424:Y O *D sky130_fd_sc_hd__inv_2
*CAP
1 *1521:A3 8.42134e-05
2 *1432:A 6.78812e-05
3 *1546:A3 2.08101e-05
4 *1431:A1 5.94072e-05
5 *1445:A 0.000120128
6 *1425:B 1.59918e-05
7 *1485:A1 9.88643e-05
8 *1481:A1 5.49892e-05
9 *1424:Y 8.34363e-05
10 *151:89 0.000180868
11 *151:85 0.000389233
12 *151:74 0.000791605
13 *151:59 0.000853643
14 *151:26 0.000409632
15 *151:10 0.000394164
16 *151:6 0.00041999
17 *1431:A1 *161:52 0.000107546
18 *1431:A1 *163:111 8.2555e-05
19 *1432:A *1546:A1 8.49205e-05
20 *1432:A *159:8 0.000158072
21 *1432:A *483:40 4.82919e-05
22 *1445:A *1423:A 0.000123225
23 *1481:A1 *1481:B1 2.72371e-05
24 *1481:A1 *1481:C1 4.77769e-05
25 *1481:A1 *223:14 1.33285e-05
26 *1481:A1 *228:39 2.52029e-05
27 *1485:A1 *1484:B1 4.28112e-06
28 *1485:A1 *1496:A2 8.561e-05
29 *1485:A1 *223:14 6.54361e-06
30 *1521:A3 *1547:A2 7.4027e-05
31 *1521:A3 *1732:A 0
32 *1546:A3 *483:40 0
33 *151:6 *1424:A 2.88357e-05
34 *151:6 *1428:B 4.63995e-05
35 *151:6 *481:41 0.000305074
36 *151:10 *1428:B 0.000188823
37 *151:10 *210:8 1.33285e-05
38 *151:10 *478:57 4.66108e-05
39 *151:10 *481:41 0.000182219
40 *151:26 *1481:B1 9.42675e-05
41 *151:26 *1481:C1 7.42548e-05
42 *151:26 *1497:B1 0.000109743
43 *151:26 *166:47 4.56429e-06
44 *151:26 *210:8 2.69153e-05
45 *151:26 *223:14 1.08758e-05
46 *151:26 *228:39 0.000100505
47 *151:26 *481:41 2.49909e-05
48 *151:59 *1428:A 0.000156424
49 *151:59 *479:26 0.000389498
50 *151:59 *484:8 1.94892e-05
51 *151:59 *484:10 0.000192806
52 *151:74 *1732:A 0
53 *151:74 *205:18 0
54 *151:74 *479:26 0.000594843
55 *151:74 *484:8 8.61335e-05
56 *151:85 *1732:A 0
57 *151:89 *1547:A2 8.40213e-05
58 *151:89 *200:50 6.71882e-05
59 *1431:A2 *1431:A1 4.66108e-05
60 *1432:B *1432:A 8.73389e-06
61 *1481:A2 *1481:A1 0.000151209
62 *1481:A2 *1485:A1 0.000109489
63 *1485:A2 *1485:A1 5.05981e-05
64 *1521:A2 *1521:A3 2.92091e-05
65 *1521:A2 *151:85 4.92206e-05
66 *1790:RESET_B *151:74 0
67 *150:8 *1445:A 2.50206e-05
68 *150:56 *1425:B 1.22325e-05
69 *150:56 *1485:A1 1.25039e-05
70 *150:102 *151:74 0.000207376
71 *150:113 *151:74 1.10951e-05
72 *150:113 *151:85 0.000154136
73 *150:117 *1432:A 8.73389e-06
74 *150:117 *151:89 2.20732e-05
*RES
1 *1424:Y *151:6 4.465 
2 *151:6 *151:10 3.57 
3 *151:10 *151:26 8.83 
4 *151:26 *1481:A1 3.445 
5 *151:26 *1485:A1 7.97 
6 *151:10 *1425:B 1.96 
7 *151:6 *151:59 8.48 
8 *151:59 *1445:A 5.805 
9 *151:59 *151:74 11.835 
10 *151:74 *1431:A1 5.43 
11 *151:74 *151:85 4.44 
12 *151:85 *151:89 3.83 
13 *151:89 *1546:A3 1.96 
14 *151:89 *1432:A 3.43 
15 *151:85 *1521:A3 5.34 
*END

*D_NET *152 0.00477687
*CONN
*I *1426:A I *D sky130_fd_sc_hd__clkbuf_4
*I *1618:A2 I *D sky130_fd_sc_hd__o22a_1
*I *1623:B1 I *D sky130_fd_sc_hd__o32a_1
*I *1537:B I *D sky130_fd_sc_hd__nor2_4
*I *1425:Y O *D sky130_fd_sc_hd__nor2_2
*CAP
1 *1426:A 0
2 *1618:A2 0
3 *1623:B1 0.000241525
4 *1537:B 4.33151e-05
5 *1425:Y 0.000273527
6 *152:29 0.000838195
7 *152:14 0.000681057
8 *152:12 0.000314599
9 *1537:B *263:92 4.88478e-05
10 *1623:B1 *217:10 4.99619e-05
11 *1623:B1 *219:16 0.000136552
12 *1623:B1 *221:10 2.97004e-06
13 *1623:B1 *221:23 1.23331e-05
14 *1623:B1 *222:8 0.000173305
15 *1623:B1 *335:6 4.82919e-05
16 *1623:B1 *339:61 4.66108e-05
17 *152:12 *1427:A 7.58604e-05
18 *152:12 *1427:B 1.16578e-05
19 *152:12 *1484:B1 1.11973e-05
20 *152:12 *1497:B1 0.000162508
21 *152:12 *166:36 5.31159e-05
22 *152:12 *263:92 0.000129099
23 *152:14 *263:92 4.66826e-05
24 *152:29 *1658:A1 0.000132961
25 *152:29 *207:10 0.000534709
26 *152:29 *339:61 0.000192125
27 *1623:B2 *1623:B1 0.000409972
28 *148:45 *152:29 9.80943e-06
29 *149:20 *152:12 5.46798e-05
30 *149:43 *1623:B1 4.14009e-05
*RES
1 *1425:Y *152:12 11.795 
2 *152:12 *152:14 0.795 
3 *152:14 *1537:B 2.395 
4 *152:14 *152:29 12.64 
5 *152:29 *1623:B1 12.215 
6 *152:29 *1618:A2 1.6 
7 *152:12 *1426:A 1.6 
*END

*D_NET *153 0.023477
*CONN
*I *1615:A2 I *D sky130_fd_sc_hd__o221ai_1
*I *1534:A3 I *D sky130_fd_sc_hd__o31a_1
*I *1594:A3 I *D sky130_fd_sc_hd__o31a_1
*I *1437:A2 I *D sky130_fd_sc_hd__o221ai_1
*I *1548:A2 I *D sky130_fd_sc_hd__o21ai_1
*I *1560:A3 I *D sky130_fd_sc_hd__o31a_1
*I *1569:A3 I *D sky130_fd_sc_hd__o31a_1
*I *1575:A3 I *D sky130_fd_sc_hd__o31a_1
*I *1568:A2 I *D sky130_fd_sc_hd__o21ai_1
*I *1644:A2 I *D sky130_fd_sc_hd__o21ai_1
*I *1426:X O *D sky130_fd_sc_hd__clkbuf_4
*CAP
1 *1615:A2 0.000169563
2 *1534:A3 0.0005445
3 *1594:A3 0.000584764
4 *1437:A2 0
5 *1548:A2 0
6 *1560:A3 0.000262599
7 *1569:A3 5.22156e-05
8 *1575:A3 0
9 *1568:A2 0.00011511
10 *1644:A2 0.000139243
11 *1426:X 0.00018981
12 *153:117 0.00138109
13 *153:104 0.000858779
14 *153:95 0.000919348
15 *153:76 0.000980553
16 *153:63 0.000508782
17 *153:43 0.000138627
18 *153:41 0.0013606
19 *153:27 0.0019308
20 *153:12 0.000804215
21 *1534:A3 *1534:B1 2.68464e-05
22 *1534:A3 *162:89 0
23 *1534:A3 *466:14 5.93876e-05
24 *1534:A3 *466:57 4.5138e-05
25 *1560:A3 *1560:B1 0.000139141
26 *1560:A3 *1571:B 9.84609e-06
27 *1560:A3 *259:24 0.000179398
28 *1560:A3 *278:42 0
29 *1568:A2 *1566:B1 4.77769e-05
30 *1568:A2 *1570:A1 7.18795e-06
31 *1568:A2 *288:25 0.000113668
32 *1569:A3 *1679:A0 7.51456e-05
33 *1594:A3 *1526:A1 1.34361e-05
34 *1594:A3 *1526:B1 0
35 *1594:A3 *1532:A2_N 0
36 *1594:A3 *1532:B1 9.30787e-05
37 *1594:A3 *1812:CLK 0.000335515
38 *1594:A3 *313:12 7.35496e-05
39 *1594:A3 *385:100 0.000196069
40 *1594:A3 *390:38 0.000345032
41 *1594:A3 *390:107 0.000224701
42 *1594:A3 *466:57 2.78732e-05
43 *1615:A2 *1616:C1 0.000134222
44 *1644:A2 *254:33 0.000454233
45 *1644:A2 *476:8 8.40213e-05
46 *1644:A2 *476:15 0.000441676
47 *153:12 *1658:A1 8.71079e-05
48 *153:12 *254:33 0.000746855
49 *153:12 *476:15 0.000646443
50 *153:12 *476:32 0.00010978
51 *153:12 *478:23 2.7881e-05
52 *153:12 *478:36 5.92269e-05
53 *153:27 *1612:B 5.78448e-05
54 *153:27 *1614:A1_N 4.24292e-06
55 *153:27 *1614:A2_N 0.000168081
56 *153:27 *1614:B1 1.00941e-05
57 *153:27 *221:23 0.000246793
58 *153:27 *222:8 4.24292e-06
59 *153:27 *222:21 0.000132139
60 *153:27 *263:43 0.000653992
61 *153:27 *339:61 9.98435e-05
62 *153:27 *468:53 0.000112595
63 *153:41 *1516:D 3.04982e-05
64 *153:41 *1528:A 7.47284e-05
65 *153:41 *1562:B 0.00015302
66 *153:41 *1573:A1 7.12055e-05
67 *153:41 *1574:A2 0.000139245
68 *153:41 *1577:A 3.38224e-05
69 *153:41 *1577:B 9.71067e-05
70 *153:41 *1581:A2 0.000489411
71 *153:41 *1616:A2 7.0152e-05
72 *153:41 *1616:B1 0.000154742
73 *153:41 *1647:B1 9.387e-06
74 *153:41 *1647:B2 4.00257e-05
75 *153:41 *1647:C1 1.88656e-05
76 *153:41 *1790:CLK 0
77 *153:41 *161:10 7.44628e-05
78 *153:41 *161:20 0.000170636
79 *153:41 *163:22 9.38244e-05
80 *153:41 *242:10 4.84116e-05
81 *153:41 *255:10 4.39001e-05
82 *153:41 *263:43 0.000307823
83 *153:41 *288:10 0.000393128
84 *153:41 *288:25 0.000180668
85 *153:41 *389:10 0
86 *153:41 *485:22 0.000131525
87 *153:43 *1575:B1 4.66108e-05
88 *153:43 *381:54 2.16833e-05
89 *153:63 *1575:B1 0.000112349
90 *153:63 *259:24 0.000163204
91 *153:76 *259:24 0.000930938
92 *153:95 *1550:A2 0.000160641
93 *153:95 *1552:A 8.65905e-05
94 *153:95 *259:24 2.05056e-05
95 *153:95 *381:54 0.000163269
96 *153:104 *1532:A1_N 4.89295e-05
97 *153:104 *1550:A2 3.00399e-05
98 *153:117 *1532:A1_N 8.76935e-05
99 *153:117 *390:113 0.000344752
100 *1548:A1 *153:104 0.000250009
101 *1560:A2 *1560:A3 3.09774e-05
102 *1568:A1 *1568:A2 5.32266e-05
103 *1594:A2 *1594:A3 0
104 *1788:D *1594:A3 5.02217e-05
105 *1797:D *153:41 2.03321e-05
106 *1817:D *1560:A3 3.72007e-05
107 *1820:D *1534:A3 2.68526e-05
108 *1820:D *153:117 4.82919e-05
109 *1820:RESET_B *1534:A3 6.31673e-05
110 *148:51 *153:27 9.01421e-05
111 *149:43 *153:27 0
112 *149:43 *153:41 0
113 *149:70 *1568:A2 1.52184e-05
114 *149:85 *1569:A3 0.000114483
115 *149:85 *153:43 8.23457e-05
116 *149:85 *153:63 0.000239813
117 *149:104 *1569:A3 9.12494e-06
118 *149:118 *1560:A3 8.66466e-06
119 *149:141 *153:104 5.84759e-05
*RES
1 *1426:X *153:12 14.495 
2 *153:12 *1644:A2 6.535 
3 *153:12 *153:27 14.645 
4 *153:27 *153:41 31.985 
5 *153:41 *153:43 0.795 
6 *153:43 *1568:A2 7.775 
7 *153:43 *1575:A3 1.6 
8 *153:41 *153:63 2.52 
9 *153:63 *1569:A3 7.235 
10 *153:63 *153:76 8.73 
11 *153:76 *1560:A3 10.43 
12 *153:76 *153:95 5.985 
13 *153:95 *1548:A2 1.6 
14 *153:95 *153:104 7.71 
15 *153:104 *1437:A2 1.6 
16 *153:104 *153:117 6.71 
17 *153:117 *1594:A3 17.775 
18 *153:117 *1534:A3 12.585 
19 *153:27 *1615:A2 5.775 
*END

*D_NET *154 0.00238829
*CONN
*I *1447:A I *D sky130_fd_sc_hd__nand3_4
*I *1430:B I *D sky130_fd_sc_hd__nand4b_4
*I *1439:A I *D sky130_fd_sc_hd__clkbuf_4
*I *1427:Y O *D sky130_fd_sc_hd__nor2_2
*CAP
1 *1447:A 0.000154901
2 *1430:B 0
3 *1439:A 0
4 *1427:Y 6.47666e-05
5 *154:19 0.000535856
6 *154:6 0.000445721
7 *1447:A *1430:A_N 4.7003e-05
8 *1447:A *1447:C 8.65961e-05
9 *1447:A *1448:A2 3.45679e-05
10 *1447:A *155:12 3.08892e-05
11 *1447:A *155:64 3.64998e-06
12 *1447:A *157:12 0
13 *1447:A *303:20 5.35298e-05
14 *154:6 *263:92 9.91257e-05
15 *154:19 *1444:A2 0.000387859
16 *154:19 *1462:A1 8.53113e-06
17 *154:19 *155:8 0
18 *154:19 *155:16 0.000138638
19 *154:19 *155:18 0.000106498
20 *154:19 *157:12 5.31158e-06
21 *154:19 *263:92 0.000184849
*RES
1 *1427:Y *154:6 3.085 
2 *154:6 *1439:A 1.6 
3 *154:6 *154:19 13.345 
4 *154:19 *1430:B 1.6 
5 *154:19 *1447:A 9.08 
*END

*D_NET *155 0.00509598
*CONN
*I *1447:B I *D sky130_fd_sc_hd__nand3_4
*I *1440:B I *D sky130_fd_sc_hd__and3_1
*I *1430:C I *D sky130_fd_sc_hd__nand4b_4
*I *1506:A2 I *D sky130_fd_sc_hd__a211o_1
*I *1451:A2 I *D sky130_fd_sc_hd__a21oi_2
*I *1454:B I *D sky130_fd_sc_hd__nand2_2
*I *1461:B I *D sky130_fd_sc_hd__nand3_1
*I *1428:Y O *D sky130_fd_sc_hd__nor2_4
*CAP
1 *1447:B 0.000213794
2 *1440:B 0.000308517
3 *1430:C 4.86523e-05
4 *1506:A2 3.22551e-05
5 *1451:A2 0
6 *1454:B 7.05467e-05
7 *1461:B 2.60533e-05
8 *1428:Y 9.68941e-05
9 *155:64 0.000419612
10 *155:26 0.000228937
11 *155:18 0.000234173
12 *155:16 0.000299484
13 *155:12 0.000416859
14 *155:8 0.000499712
15 *1440:B *1430:A_N 1.1542e-05
16 *1440:B *1440:A 8.73389e-06
17 *1440:B *1440:C 7.99957e-05
18 *1447:B *1447:C 4.35778e-05
19 *1447:B *1448:A2 2.30292e-05
20 *1447:B *157:12 8.72577e-05
21 *1447:B *174:6 4.92062e-05
22 *1447:B *229:16 4.16445e-05
23 *1454:B *1454:A 0.000155061
24 *1454:B *1458:A1 3.64998e-06
25 *1454:B *1609:A3 1.16624e-05
26 *1461:B *480:33 0
27 *1506:A2 *1507:C 8.49205e-05
28 *1506:A2 *469:45 1.19928e-05
29 *155:8 *1444:A2 8.68767e-06
30 *155:12 *1430:A_N 1.63826e-05
31 *155:16 *303:20 1.96308e-05
32 *155:16 *481:41 4.99339e-05
33 *155:16 *481:47 7.56461e-05
34 *155:18 *1462:A1 0.000155176
35 *155:18 *481:47 0.000357899
36 *155:26 *1454:A 0
37 *155:26 *1462:A1 0.000158281
38 *155:26 *1462:B1 1.34503e-05
39 *155:26 *1609:A3 0.000156923
40 *155:26 *480:33 1.16578e-05
41 *155:26 *481:47 0.000156614
42 *155:64 *1430:A_N 8.38297e-06
43 *1447:A *155:12 3.08892e-05
44 *1447:A *155:64 3.64998e-06
45 *148:35 *1506:A2 0.000119873
46 *150:40 *1447:B 0
47 *150:40 *155:8 0
48 *154:19 *155:8 0
49 *154:19 *155:16 0.000138638
50 *154:19 *155:18 0.000106498
*RES
1 *1428:Y *155:8 4.98 
2 *155:8 *155:12 4.175 
3 *155:12 *155:16 5.42 
4 *155:16 *155:18 4.185 
5 *155:18 *155:26 5.765 
6 *155:26 *1461:B 2.2225 
7 *155:26 *1454:B 3.415 
8 *155:18 *1451:A2 3.6 
9 *155:16 *1506:A2 4.74 
10 *155:12 *155:64 0.795 
11 *155:64 *1430:C 2.47 
12 *155:64 *1440:B 5.155 
13 *155:8 *1447:B 8.46 
*END

*D_NET *156 0.00235636
*CONN
*I *1447:C I *D sky130_fd_sc_hd__nand3_4
*I *1440:C I *D sky130_fd_sc_hd__and3_1
*I *1430:D I *D sky130_fd_sc_hd__nand4b_4
*I *1429:Y O *D sky130_fd_sc_hd__nor2_2
*CAP
1 *1447:C 0.000152494
2 *1440:C 0.000102268
3 *1430:D 0
4 *1429:Y 0.000147507
5 *156:14 0.000102268
6 *156:12 0.000300001
7 *1440:C *1440:A 0.000155608
8 *1440:C *167:10 5.54534e-05
9 *1447:C *1440:A 2.07338e-05
10 *1447:C *1448:A2 6.50978e-05
11 *1447:C *1449:A2 0.000131046
12 *1447:C *229:16 0.000348802
13 *1447:C *303:20 3.52733e-05
14 *156:12 *1440:A 0.000136177
15 *156:12 *1444:A2 0.000193679
16 *156:12 *1444:B1 1.72577e-05
17 *156:12 *1449:A2 0.00013475
18 *156:12 *481:41 4.77769e-05
19 *1440:B *1440:C 7.99957e-05
20 *1447:A *1447:C 8.65961e-05
21 *1447:B *1447:C 4.35778e-05
*RES
1 *1429:Y *156:12 7.425 
2 *156:12 *156:14 2 
3 *156:14 *1430:D 1.6 
4 *156:14 *1440:C 4.3 
5 *156:12 *1447:C 8.805 
*END

*D_NET *157 0.00473975
*CONN
*I *1525:B1 I *D sky130_fd_sc_hd__a221o_1
*I *1433:A1 I *D sky130_fd_sc_hd__a21oi_4
*I *1470:A2 I *D sky130_fd_sc_hd__o211ai_4
*I *1430:Y O *D sky130_fd_sc_hd__nand4b_4
*CAP
1 *1525:B1 0.000142638
2 *1433:A1 2.50513e-05
3 *1470:A2 0
4 *1430:Y 0.00046932
5 *157:23 0.000402049
6 *157:12 0.000703679
7 *1433:A1 *1433:A2 0.000121043
8 *1433:A1 *390:14 0.000121043
9 *1525:B1 *1521:A1 5.83373e-05
10 *1525:B1 *1525:A1 9.50342e-06
11 *1525:B1 *1525:B2 0
12 *1525:B1 *160:8 4.20456e-05
13 *1525:B1 *256:21 0.000173402
14 *1525:B1 *483:53 8.06749e-05
15 *157:12 *1473:A2 0.00032163
16 *157:12 *1474:A2 0
17 *157:12 *1540:A 0.000636082
18 *157:12 *174:10 0.000495989
19 *157:12 *174:53 1.03592e-05
20 *157:12 *303:20 0
21 *157:12 *400:36 2.49909e-05
22 *157:23 *1470:B1 0.000142059
23 *157:23 *1473:A2 1.15688e-05
24 *157:23 *160:8 0.000381712
25 *157:23 *256:21 7.91265e-05
26 *157:23 *303:10 5.46995e-05
27 *157:23 *303:20 9.54538e-05
28 *157:23 *400:36 4.47209e-05
29 *1447:A *157:12 0
30 *1447:B *157:12 8.72577e-05
31 *150:40 *157:12 0
32 *150:102 *157:12 0
33 *154:19 *157:12 5.31158e-06
*RES
1 *1430:Y *157:12 18.395 
2 *157:12 *1470:A2 1.6 
3 *157:12 *157:23 8.765 
4 *157:23 *1433:A1 4.74 
5 *157:23 *1525:B1 7.53 
*END

*D_NET *158 0.00262065
*CONN
*I *1525:B2 I *D sky130_fd_sc_hd__a221o_1
*I *1433:A2 I *D sky130_fd_sc_hd__a21oi_4
*I *1473:B1 I *D sky130_fd_sc_hd__o21a_2
*I *1431:Y O *D sky130_fd_sc_hd__a21oi_2
*CAP
1 *1525:B2 0.000177487
2 *1433:A2 0.000232772
3 *1473:B1 0.000117174
4 *1431:Y 3.37765e-05
5 *158:19 0.000451358
6 *158:8 0.00019205
7 *1433:A2 *1433:B1 4.77807e-05
8 *1433:A2 *390:14 0.000117077
9 *1473:B1 *1473:A2 5.31158e-06
10 *1473:B1 *1661:A1 9.04781e-05
11 *1473:B1 *160:8 6.46286e-05
12 *1473:B1 *160:35 7.03824e-05
13 *1473:B1 *483:53 2.68037e-05
14 *1525:B2 *1433:B1 0.000243462
15 *1525:B2 *1521:A1 0.000138819
16 *1525:B2 *1525:A2 3.76287e-05
17 *1525:B2 *1525:C1 4.82919e-05
18 *1525:B2 *1546:B1 0.000116158
19 *1525:B2 *1661:A1 6.51234e-06
20 *1525:B2 *159:21 9.17274e-05
21 *1525:B2 *483:53 5.04431e-05
22 *158:8 *161:52 4.77807e-05
23 *158:19 *1661:A1 4.45373e-05
24 *158:19 *483:53 4.7167e-05
25 *1433:A1 *1433:A2 0.000121043
26 *1525:B1 *1525:B2 0
*RES
1 *1431:Y *158:8 4.05 
2 *158:8 *1473:B1 6.51 
3 *158:8 *158:19 1.125 
4 *158:19 *1433:A2 7.515 
5 *158:19 *1525:B2 9.04875 
*END

*D_NET *159 0.00849736
*CONN
*I *1525:C1 I *D sky130_fd_sc_hd__a221o_1
*I *1520:A1 I *D sky130_fd_sc_hd__o21ai_1
*I *1562:A I *D sky130_fd_sc_hd__or3b_1
*I *1577:A I *D sky130_fd_sc_hd__or3b_1
*I *1433:B1 I *D sky130_fd_sc_hd__a21oi_4
*I *1432:X O *D sky130_fd_sc_hd__and3_2
*CAP
1 *1525:C1 3.03995e-05
2 *1520:A1 0.000134104
3 *1562:A 0.000299396
4 *1577:A 9.61425e-05
5 *1433:B1 0.000127098
6 *1432:X 0.000220813
7 *159:41 0.00117361
8 *159:27 0.00148025
9 *159:21 0.00063842
10 *159:8 0.000387859
11 *1433:B1 *1661:A1 0.000246418
12 *1433:B1 *385:100 1.91597e-05
13 *1433:B1 *390:14 4.77807e-05
14 *1520:A1 *1520:A2 1.83847e-05
15 *1520:A1 *1543:B 1.23707e-05
16 *1520:A1 *1544:B1_N 4.99619e-05
17 *1520:A1 *165:29 3.18332e-05
18 *1520:A1 *244:10 0
19 *1520:A1 *278:10 0.000103911
20 *1525:C1 *1521:A1 1.91597e-05
21 *1525:C1 *1525:A2 8.65961e-05
22 *1525:C1 *1661:A1 1.05827e-05
23 *1562:A *1438:A4 0.000208579
24 *1562:A *1562:B 0.000612399
25 *1562:A *1562:C_N 0.000113654
26 *1562:A *1576:B1 0
27 *1562:A *1577:C_N 0.00024756
28 *1562:A *1616:B1 1.27474e-05
29 *1562:A *1679:A0 0
30 *1577:A *1562:B 9.44589e-05
31 *1577:A *1577:B 9.54399e-05
32 *1577:A *1577:C_N 0.000220915
33 *1577:A *1824:A 8.34144e-06
34 *159:8 *483:36 8.57024e-05
35 *159:8 *483:40 3.51884e-05
36 *159:21 *1661:A1 9.25928e-05
37 *159:27 *384:135 0.000144109
38 *159:41 *1517:A1 8.65961e-05
39 *159:41 *1517:B1 0.000120655
40 *159:41 *1824:A 0.000118081
41 *159:41 *200:50 5.54529e-05
42 *159:41 *200:54 0.000190542
43 *159:41 *244:10 0
44 *159:41 *278:10 5.27922e-05
45 *159:41 *279:55 4.41506e-05
46 *1432:A *159:8 0.000158072
47 *1433:A2 *1433:B1 4.77807e-05
48 *1525:B2 *1433:B1 0.000243462
49 *1525:B2 *1525:C1 4.82919e-05
50 *1525:B2 *159:21 9.17274e-05
51 *153:41 *1577:A 3.38224e-05
*RES
1 *1432:X *159:8 6.465 
2 *159:8 *1433:B1 7.305 
3 *159:8 *159:21 1.2525 
4 *159:21 *159:27 2.02853 
5 *159:27 *159:41 15.8425 
6 *159:41 *1577:A 6.51 
7 *159:41 *1562:A 12.345 
8 *159:27 *1520:A1 6.6825 
9 *159:21 *1525:C1 4.6275 
*END

*D_NET *160 0.00818194
*CONN
*I *1434:A I *D sky130_fd_sc_hd__buf_4
*I *1513:B I *D sky130_fd_sc_hd__xor2_2
*I *1512:B I *D sky130_fd_sc_hd__xor2_2
*I *1470:B1 I *D sky130_fd_sc_hd__o211ai_4
*I *1433:Y O *D sky130_fd_sc_hd__a21oi_4
*CAP
1 *1434:A 0
2 *1513:B 0.000154307
3 *1512:B 6.01213e-05
4 *1470:B1 0.00012393
5 *1433:Y 0.000163014
6 *160:39 0.000374191
7 *160:35 0.00162695
8 *160:8 0.00175413
9 *1470:B1 *1473:A2 9.5433e-05
10 *1470:B1 *400:36 2.54431e-05
11 *1512:B *1586:A1 4.18603e-06
12 *1512:B *1681:A0 0.000158629
13 *1512:B *279:23 8.33066e-06
14 *1512:B *474:25 5.7229e-05
15 *1513:B *1513:A 7.98631e-05
16 *1513:B *1581:B2 1.32026e-05
17 *1513:B *1681:A0 0.000339456
18 *1513:B *279:23 0.000163735
19 *1513:B *385:100 6.63005e-05
20 *1513:B *474:25 6.33761e-05
21 *160:8 *1473:A2 4.19155e-05
22 *160:8 *483:53 0.000195381
23 *160:35 *1473:A2 1.43094e-05
24 *160:35 *1660:A1 1.87913e-05
25 *160:35 *1661:A1 0.00010984
26 *160:35 *1661:B1 0.000153816
27 *160:35 *205:18 0.00015896
28 *160:35 *239:49 5.31892e-05
29 *160:35 *303:115 0.000671377
30 *160:35 *303:133 8.57023e-05
31 *160:39 *1584:A 0.000302126
32 *160:39 *239:49 0.000157386
33 *160:39 *485:22 0.000166626
34 *1473:B1 *160:8 6.46286e-05
35 *1473:B1 *160:35 7.03824e-05
36 *1525:B1 *160:8 4.20456e-05
37 *1660:B2 *160:35 1.9872e-05
38 *157:23 *1470:B1 0.000142059
39 *157:23 *160:8 0.000381712
*RES
1 *1433:Y *160:8 8.805 
2 *160:8 *1470:B1 6.225 
3 *160:8 *160:35 25.365 
4 *160:35 *160:39 6.59 
5 *160:39 *1512:B 3.89 
6 *160:39 *1513:B 7.2725 
7 *160:35 *1434:A 1.6 
*END

*D_NET *161 0.0204351
*CONN
*I *1450:A2 I *D sky130_fd_sc_hd__a32oi_1
*I *1442:A2 I *D sky130_fd_sc_hd__a21oi_1
*I *1526:A2 I *D sky130_fd_sc_hd__a22oi_1
*I *1535:B I *D sky130_fd_sc_hd__xor2_1
*I *1437:B1 I *D sky130_fd_sc_hd__o221ai_1
*I *1518:B I *D sky130_fd_sc_hd__xor2_1
*I *1514:B I *D sky130_fd_sc_hd__xor2_2
*I *1438:B1 I *D sky130_fd_sc_hd__o41a_1
*I *1515:B I *D sky130_fd_sc_hd__xor2_2
*I *1563:B1 I *D sky130_fd_sc_hd__o21a_1
*I *1434:X O *D sky130_fd_sc_hd__buf_4
*CAP
1 *1450:A2 0
2 *1442:A2 0.000197824
3 *1526:A2 0.000182865
4 *1535:B 0
5 *1437:B1 0
6 *1518:B 0
7 *1514:B 0.00118567
8 *1438:B1 9.04352e-05
9 *1515:B 2.30764e-05
10 *1563:B1 6.63036e-05
11 *1434:X 9.6816e-05
12 *161:135 0.000620154
13 *161:86 0.00165854
14 *161:78 0.000599622
15 *161:68 0.000157206
16 *161:66 0.000702888
17 *161:52 0.00232296
18 *161:33 0.000161914
19 *161:20 0.000644512
20 *161:10 0.00203769
21 *1438:B1 *165:10 3.83194e-05
22 *1438:B1 *242:10 8.65905e-05
23 *1438:B1 *462:32 0.000267944
24 *1442:A2 *1450:B1 9.45101e-05
25 *1442:A2 *1478:B2 1.7532e-05
26 *1514:B *1552:B 0.000193289
27 *1514:B *1679:A0 0.000131017
28 *1514:B *1817:CLK 2.68526e-05
29 *1514:B *162:126 2.92271e-05
30 *1514:B *245:12 8.23457e-05
31 *1514:B *380:67 7.19909e-05
32 *1514:B *380:69 2.10905e-05
33 *1514:B *380:103 5.56228e-05
34 *1514:B *463:29 1.56261e-05
35 *1515:B *462:32 4.11729e-05
36 *1526:A2 *1526:A1 2.04923e-05
37 *1526:A2 *1526:B1 1.77665e-05
38 *1526:A2 *1526:B2 2.39856e-05
39 *1526:A2 *261:10 4.66108e-05
40 *1563:B1 *1563:A1 0.000123225
41 *1563:B1 *1574:B2 2.49909e-05
42 *1563:B1 *286:16 2.42043e-05
43 *161:10 *389:10 0.00021405
44 *161:20 *1436:A 4.77769e-05
45 *161:20 *1579:A1 0.000153364
46 *161:20 *1579:A2 1.14169e-05
47 *161:20 *1581:A2 0.000238785
48 *161:20 *1581:B1 3.84008e-05
49 *161:20 *279:8 3.67007e-05
50 *161:20 *288:10 4.90031e-05
51 *161:20 *485:22 6.14605e-05
52 *161:33 *1574:B2 0.000116853
53 *161:33 *288:10 0.000157714
54 *161:52 *1436:A 0.00070567
55 *161:52 *1582:A 8.41384e-05
56 *161:52 *1646:A 0.000194914
57 *161:52 *162:36 0.000155608
58 *161:52 *162:38 4.66108e-05
59 *161:52 *163:111 0.000118182
60 *161:52 *205:18 0.0001192
61 *161:52 *205:24 2.21074e-05
62 *161:52 *483:61 4.02438e-05
63 *161:66 *1532:A2_N 4.36573e-06
64 *161:66 *1646:C 0.000294316
65 *161:66 *1732:A 0.000345642
66 *161:66 *266:155 0.000706307
67 *161:66 *479:24 0.000642214
68 *161:66 *483:36 3.22827e-05
69 *161:68 *1526:B2 4.41506e-05
70 *161:68 *261:10 4.00217e-05
71 *161:78 *1437:C1 0.000227479
72 *161:78 *1532:A1_N 2.5195e-05
73 *161:78 *1646:C 0.000152619
74 *161:86 *1524:A 9.32375e-05
75 *161:86 *1534:A1 0.000185635
76 *161:86 *245:12 3.64696e-05
77 *161:86 *251:16 0
78 *161:86 *266:155 7.21296e-06
79 *161:86 *380:103 0.000618714
80 *161:86 *390:113 0
81 *161:86 *466:20 0.000137355
82 *161:135 *1478:B2 2.54824e-05
83 *161:135 *1646:C 0
84 *161:135 *163:111 0.000171791
85 *1431:A1 *161:52 0.000107546
86 *1437:A1 *161:78 4.77757e-05
87 *1594:A2 *161:66 0.000289371
88 *1594:A2 *161:78 7.80605e-05
89 *1817:D *1514:B 0.000178451
90 *1817:RESET_B *1514:B 5.45467e-05
91 *1819:D *161:86 2.01737e-05
92 *149:70 *161:20 0.000348085
93 *149:70 *161:33 2.27398e-05
94 *149:126 *161:86 0.000323058
95 *149:141 *161:78 6.6852e-05
96 *153:41 *161:10 7.44628e-05
97 *153:41 *161:20 0.000170636
98 *158:8 *161:52 4.77807e-05
*RES
1 *1434:X *161:10 8.255 
2 *161:10 *161:20 13.52 
3 *161:20 *1563:B1 5.085 
4 *161:20 *161:33 3.89 
5 *161:33 *1515:B 0.3975 
6 *161:33 *1438:B1 4.12 
7 *161:10 *161:52 19.89 
8 *161:52 *161:66 23.15 
9 *161:66 *161:68 0.795 
10 *161:68 *161:78 8.08 
11 *161:78 *161:86 16.195 
12 *161:86 *1514:B 20.71 
13 *161:86 *1518:B 1.6 
14 *161:78 *1437:B1 1.6 
15 *161:68 *1535:B 1.6 
16 *161:66 *1526:A2 4.7875 
17 *161:52 *161:135 8.9 
18 *161:135 *1442:A2 6.495 
19 *161:135 *1450:A2 3.6 
*END

*D_NET *162 0.0210294
*CONN
*I *1533:A I *D sky130_fd_sc_hd__clkbuf_4
*I *1551:A I *D sky130_fd_sc_hd__or3_1
*I *1571:A I *D sky130_fd_sc_hd__or3b_1
*I *1569:B1 I *D sky130_fd_sc_hd__o31a_1
*I *1541:A I *D sky130_fd_sc_hd__or2_1
*I *1594:B1 I *D sky130_fd_sc_hd__o31a_1
*I *1660:A2 I *D sky130_fd_sc_hd__a22o_1
*I *1553:A I *D sky130_fd_sc_hd__nor2_1
*I *1658:A2 I *D sky130_fd_sc_hd__a22o_1
*I *1436:A I *D sky130_fd_sc_hd__clkbuf_4
*I *1435:X O *D sky130_fd_sc_hd__clkbuf_4
*CAP
1 *1533:A 0.000132889
2 *1551:A 5.23192e-05
3 *1571:A 0.000518372
4 *1569:B1 7.09034e-05
5 *1541:A 6.27258e-05
6 *1594:B1 0
7 *1660:A2 3.35258e-05
8 *1553:A 0.000358566
9 *1658:A2 2.0132e-05
10 *1436:A 0.000146809
11 *1435:X 0.000233534
12 *162:126 0.00108942
13 *162:112 0.000843107
14 *162:95 0.00122025
15 *162:89 0.00121347
16 *162:56 0.000492684
17 *162:38 0.000181187
18 *162:36 0.00175836
19 *162:22 0.0022903
20 *162:8 0.00109402
21 *1436:A *1658:B2 8.52883e-05
22 *1436:A *279:6 8.04712e-05
23 *1436:A *485:22 0.000528354
24 *1533:A *259:14 4.66108e-05
25 *1533:A *381:56 0.00010952
26 *1541:A *266:155 1.56428e-05
27 *1551:A *1551:C 4.887e-05
28 *1551:A *1552:A 4.61701e-06
29 *1551:A *1571:B 8.53011e-05
30 *1551:A *1841:A 1.88602e-05
31 *1551:A *266:161 3.63576e-05
32 *1553:A *1553:B 2.01502e-05
33 *1553:A *1742:A 0.00011483
34 *1553:A *238:10 2.09144e-05
35 *1553:A *277:6 0.000235573
36 *1553:A *277:17 0.000119756
37 *1569:B1 *1566:A1 4.77807e-05
38 *1569:B1 *1568:B1 4.89395e-05
39 *1569:B1 *1679:A0 7.27827e-05
40 *1569:B1 *463:29 4.82172e-06
41 *1571:A *1570:A1 9.92098e-06
42 *1571:A *1571:B 5.83121e-06
43 *1571:A *1572:B 1.72577e-05
44 *1571:A *1681:A0 2.03539e-05
45 *1571:A *382:170 8.05732e-05
46 *1571:A *462:19 6.4559e-05
47 *1660:A2 *1661:B1 4.41506e-05
48 *1660:A2 *303:133 4.91952e-05
49 *162:8 *1435:A 3.45679e-05
50 *162:8 *1532:B1 0.000110793
51 *162:22 *1538:B1 0.000276552
52 *162:22 *1646:C 0
53 *162:22 *1668:A1 8.63708e-05
54 *162:22 *1668:A2 8.58167e-05
55 *162:22 *1668:A3 5.83121e-06
56 *162:22 *1812:CLK 5.12297e-05
57 *162:22 *278:113 5.13668e-05
58 *162:22 *390:38 8.5485e-05
59 *162:22 *390:107 6.03396e-05
60 *162:36 *1517:A1 4.03869e-05
61 *162:36 *1824:A 5.91985e-05
62 *162:36 *1825:A 3.86814e-05
63 *162:36 *205:24 0.000135528
64 *162:36 *266:123 0
65 *162:36 *278:10 2.47102e-05
66 *162:36 *279:6 5.56397e-05
67 *162:36 *386:50 0.000259971
68 *162:38 *279:6 1.91597e-05
69 *162:56 *1742:A 0.000202341
70 *162:56 *238:10 9.52576e-05
71 *162:56 *238:19 1.10951e-05
72 *162:89 *259:14 7.03219e-05
73 *162:89 *278:111 5.71408e-05
74 *162:89 *278:113 7.1635e-05
75 *162:89 *390:107 0.000121868
76 *162:89 *466:14 0.000111293
77 *162:95 *1542:A2_N 6.90254e-05
78 *162:95 *259:14 0.000313428
79 *162:95 *259:18 0.000318552
80 *162:112 *1542:A2_N 7.9882e-05
81 *162:112 *1661:A1 0
82 *162:112 *1729:A 0.00015664
83 *162:126 *1560:A1 1.7635e-05
84 *162:126 *1571:B 0.000752281
85 *162:126 *1679:A0 5.02814e-06
86 *162:126 *1729:A 4.73561e-05
87 *162:126 *382:170 7.23622e-05
88 *162:126 *463:29 1.61377e-05
89 *1514:B *162:126 2.92271e-05
90 *1534:A3 *162:89 0
91 *1594:A2 *162:22 3.34533e-05
92 *1788:D *162:22 1.35779e-05
93 *1788:RESET_B *162:22 0.000166346
94 *1790:D *1553:A 7.06865e-05
95 *1816:D *1571:A 1.19928e-05
96 *149:104 *1569:B1 0.000132261
97 *149:104 *162:126 0.000690474
98 *149:118 *162:112 0.000602548
99 *149:118 *162:126 0.000402438
100 *161:20 *1436:A 4.77769e-05
101 *161:52 *1436:A 0.00070567
102 *161:52 *162:36 0.000155608
103 *161:52 *162:38 4.66108e-05
*RES
1 *1435:X *162:8 7.5 
2 *162:8 *162:22 17.23 
3 *162:22 *162:36 8.885 
4 *162:36 *162:38 0.45 
5 *162:38 *1436:A 8.605 
6 *162:38 *1658:A2 1.96 
7 *162:36 *162:56 4.655 
8 *162:56 *1553:A 9.15 
9 *162:56 *1660:A2 4.395 
10 *162:22 *1594:B1 3.6 
11 *162:8 *162:89 7.205 
12 *162:89 *162:95 13.325 
13 *162:95 *1541:A 4.41 
14 *162:95 *162:112 2.46777 
15 *162:112 *162:126 12.9622 
16 *162:126 *1569:B1 5.8125 
17 *162:126 *1571:A 7.03797 
18 *162:112 *1551:A 5.4725 
19 *162:89 *1533:A 4.135 
*END

*D_NET *163 0.0361545
*CONN
*I *1696:A2 I *D sky130_fd_sc_hd__a22o_1
*I *1695:B1 I *D sky130_fd_sc_hd__o21a_1
*I *1706:A1 I *D sky130_fd_sc_hd__a21oi_1
*I *1437:C1 I *D sky130_fd_sc_hd__o221ai_1
*I *1531:A2 I *D sky130_fd_sc_hd__a21oi_1
*I *1621:B2 I *D sky130_fd_sc_hd__a22o_1
*I *1626:B2 I *D sky130_fd_sc_hd__a22o_1
*I *1600:B2 I *D sky130_fd_sc_hd__a22o_1
*I *1610:B2 I *D sky130_fd_sc_hd__a22o_1
*I *1647:B2 I *D sky130_fd_sc_hd__a221o_1
*I *1436:X O *D sky130_fd_sc_hd__clkbuf_4
*CAP
1 *1696:A2 0.000517373
2 *1695:B1 0.000243668
3 *1706:A1 0
4 *1437:C1 0.000730325
5 *1531:A2 0
6 *1621:B2 0
7 *1626:B2 7.84016e-05
8 *1600:B2 0.00020816
9 *1610:B2 0
10 *1647:B2 2.42935e-05
11 *1436:X 0.000159233
12 *163:134 0.00153102
13 *163:124 0.00158028
14 *163:118 0.00106951
15 *163:111 0.00228335
16 *163:61 0.00237731
17 *163:51 0.00253626
18 *163:49 0.00333679
19 *163:22 0.00370678
20 *163:6 0.00306077
21 *1437:C1 *1532:A1_N 5.55258e-05
22 *1437:C1 *1532:A2_N 8.4841e-05
23 *1437:C1 *1706:A2 5.58436e-05
24 *1437:C1 *1706:B1 4.82863e-05
25 *1437:C1 *1771:CLK 6.89124e-05
26 *1437:C1 *390:113 9.38596e-05
27 *1600:B2 *1600:A2 0.000350691
28 *1600:B2 *1755:A 1.91597e-05
29 *1600:B2 *325:14 8.82261e-05
30 *1600:B2 *388:65 0.00016424
31 *1600:B2 *469:45 0.000113222
32 *1647:B2 *1681:A0 2.32068e-05
33 *1647:B2 *263:43 2.65402e-05
34 *1647:B2 *473:8 1.33285e-05
35 *1696:A2 *1531:B1 8.35157e-05
36 *1696:A2 *1671:B1 0.00158819
37 *1696:A2 *278:123 0.000900313
38 *1696:A2 *278:125 0.000557812
39 *1696:A2 *492:14 0.000119251
40 *163:6 *1659:B1 0.000233171
41 *163:22 *1660:A1 0
42 *163:22 *1681:A0 3.82728e-05
43 *163:22 *1790:CLK 0
44 *163:22 *239:49 0
45 *163:22 *277:17 0
46 *163:22 *389:10 0
47 *163:22 *389:25 3.34652e-05
48 *163:49 *1621:B1 2.04694e-05
49 *163:49 *1647:B1 4.16483e-05
50 *163:49 *1647:C1 9.89447e-05
51 *163:49 *1659:A3 0
52 *163:49 *1679:A0 3.61728e-05
53 *163:49 *349:16 0.000455512
54 *163:49 *461:14 3.22653e-05
55 *163:51 *1621:B1 5.53249e-06
56 *163:51 *1832:A 3.96347e-05
57 *163:51 *338:10 0
58 *163:51 *461:14 0.000291426
59 *163:61 *1650:A1 0.000249052
60 *163:61 *1652:A1 0.000403388
61 *163:61 *1652:A2 1.79098e-05
62 *163:61 *1683:A0 8.35118e-05
63 *163:61 *1792:CLK 5.96097e-05
64 *163:61 *1833:A 4.89362e-05
65 *163:61 *359:32 0.000108552
66 *163:61 *388:41 0.000309643
67 *163:61 *388:65 0.000582434
68 *163:61 *490:10 0.000191887
69 *163:111 *1531:A1 7.55064e-05
70 *163:111 *1531:B1 8.28018e-06
71 *163:111 *1532:B1 0.000348951
72 *163:111 *1646:A 6.04372e-05
73 *163:111 *1659:B1 0.000489075
74 *163:111 *205:18 0.000209271
75 *163:111 *279:6 0.000174697
76 *163:111 *303:10 4.77769e-05
77 *163:111 *472:18 3.08579e-05
78 *163:111 *483:61 0.000231815
79 *163:118 *1531:B1 4.77769e-05
80 *163:124 *1636:A0 0.000151408
81 *163:124 *1671:B1 0.00121048
82 *163:124 *256:59 0
83 *163:124 *359:18 0
84 *163:124 *472:12 3.97568e-05
85 *163:124 *493:12 4.05358e-05
86 *163:134 *1706:A2 4.9977e-05
87 *163:134 *259:102 0
88 *163:134 *278:111 7.4027e-05
89 *1431:A1 *163:111 8.2555e-05
90 *1431:A2 *163:111 4.66108e-05
91 *1548:A1 *1437:C1 5.53774e-05
92 *1771:D *163:134 0.000168435
93 *1773:D *1695:B1 8.77498e-05
94 *1797:D *163:22 3.23391e-05
95 *1797:RESET_B *163:22 9.55448e-05
96 *1809:D *1600:B2 0.000158552
97 *1809:D *163:61 0.000194201
98 *1812:RESET_B *163:124 0
99 *149:141 *1437:C1 1.12578e-05
100 *153:41 *1647:B2 4.00257e-05
101 *153:41 *163:22 9.38244e-05
102 *161:52 *163:111 0.000118182
103 *161:78 *1437:C1 0.000227479
104 *161:135 *163:111 0.000171791
*RES
1 *1436:X *163:6 3.775 
2 *163:6 *163:22 15.2025 
3 *163:22 *1647:B2 4.3275 
4 *163:22 *163:49 7.37683 
5 *163:49 *163:51 5.97 
6 *163:51 *163:61 34.04 
7 *163:61 *1610:B2 1.6 
8 *163:61 *1600:B2 12.17 
9 *163:51 *1626:B2 4.74 
10 *163:49 *1621:B2 3.6 
11 *163:6 *163:111 34.68 
12 *163:111 *1531:A2 1.6 
13 *163:111 *163:118 0.45 
14 *163:118 *163:124 18.13 
15 *163:124 *163:134 13.78 
16 *163:134 *1437:C1 11.665 
17 *163:134 *1706:A1 1.6 
18 *163:124 *1695:B1 5.5 
19 *163:118 *1696:A2 26.36 
*END

*D_NET *164 0.000663858
*CONN
*I *1532:A1_N I *D sky130_fd_sc_hd__a2bb2o_1
*I *1437:Y O *D sky130_fd_sc_hd__o221ai_1
*CAP
1 *1532:A1_N 9.03272e-05
2 *1437:Y 9.03272e-05
3 *1532:A1_N *1532:A2_N 4.77757e-05
4 *1532:A1_N *390:113 0.000121815
5 *1437:A1 *1532:A1_N 2.57422e-05
6 *1437:C1 *1532:A1_N 5.55258e-05
7 *149:141 *1532:A1_N 7.05268e-05
8 *153:104 *1532:A1_N 4.89295e-05
9 *153:117 *1532:A1_N 8.76935e-05
10 *161:78 *1532:A1_N 2.5195e-05
*RES
1 *1437:Y *1532:A1_N 6.65 
*END

*D_NET *165 0.00379087
*CONN
*I *1544:A1 I *D sky130_fd_sc_hd__o21bai_2
*I *1523:A1 I *D sky130_fd_sc_hd__o21bai_2
*I *1557:B1 I *D sky130_fd_sc_hd__a21o_1
*I *1438:X O *D sky130_fd_sc_hd__o41a_1
*CAP
1 *1544:A1 0
2 *1523:A1 0.00014654
3 *1557:B1 8.65626e-05
4 *1438:X 0.000764728
5 *165:29 0.000256411
6 *165:10 0.000961162
7 *1523:A1 *1523:A2 9.54322e-05
8 *1523:A1 *1523:B1_N 0.00015896
9 *1523:A1 *244:10 2.99518e-06
10 *1523:A1 *250:6 4.66742e-05
11 *1523:A1 *269:31 1.12578e-05
12 *1523:A1 *278:10 4.55801e-05
13 *1557:B1 *1517:B1 5.62881e-05
14 *1557:B1 *1520:A2 0.000139245
15 *1557:B1 *1742:A 1.01661e-05
16 *1557:B1 *173:107 6.08075e-05
17 *1557:B1 *389:157 0
18 *165:10 *1559:B1 1.74678e-05
19 *165:10 *1559:B2 0.00017446
20 *165:10 *1574:A1 8.48377e-05
21 *165:10 *1742:A 1.65371e-05
22 *165:10 *173:107 0.000102489
23 *165:10 *242:10 4.82863e-05
24 *165:10 *254:99 1.81138e-05
25 *165:10 *269:12 5.91322e-05
26 *165:10 *462:32 4.29107e-05
27 *165:29 *1520:A2 0.000134938
28 *165:29 *1544:B1_N 0.000130453
29 *165:29 *269:12 4.82863e-05
30 *1438:B1 *165:10 3.83194e-05
31 *1520:A1 *165:29 3.18332e-05
*RES
1 *1438:X *165:10 13.53 
2 *165:10 *1557:B1 5.94 
3 *165:10 *165:29 5.24 
4 *165:29 *1523:A1 9.08 
5 *165:29 *1544:A1 1.6 
*END

*D_NET *166 0.00867516
*CONN
*I *1440:A I *D sky130_fd_sc_hd__and3_1
*I *1506:A1 I *D sky130_fd_sc_hd__a211o_1
*I *1451:A1 I *D sky130_fd_sc_hd__a21oi_2
*I *1454:A I *D sky130_fd_sc_hd__nand2_2
*I *1461:A I *D sky130_fd_sc_hd__nand3_1
*I *1496:A1 I *D sky130_fd_sc_hd__a211o_1
*I *1481:C1 I *D sky130_fd_sc_hd__a211o_1
*I *1485:C1 I *D sky130_fd_sc_hd__a211o_1
*I *1484:A2 I *D sky130_fd_sc_hd__o21ai_1
*I *1480:A2 I *D sky130_fd_sc_hd__o21ai_1
*I *1439:X O *D sky130_fd_sc_hd__clkbuf_4
*CAP
1 *1440:A 0.000264592
2 *1506:A1 1.36534e-05
3 *1451:A1 3.45886e-05
4 *1454:A 6.0653e-05
5 *1461:A 2.48308e-05
6 *1496:A1 0
7 *1481:C1 5.58872e-05
8 *1485:C1 0
9 *1484:A2 5.51691e-05
10 *1480:A2 5.92733e-05
11 *1439:X 0
12 *166:104 0.000324557
13 *166:73 0.000163859
14 *166:71 0.000181621
15 *166:69 0.000483869
16 *166:47 0.000142776
17 *166:36 0.000360245
18 *166:12 0.000114442
19 *166:10 0.000789808
20 *166:4 0.000885352
21 *1440:A *1429:B 0.000101319
22 *1440:A *1430:A_N 0.000118081
23 *1440:A *172:68 0
24 *1440:A *259:129 9.67081e-06
25 *1440:A *303:20 0.000181365
26 *1440:A *480:94 7.9642e-06
27 *1440:A *492:42 0
28 *1451:A1 *1461:C 0.000118081
29 *1454:A *1458:A1 1.17409e-05
30 *1454:A *1609:A3 0.000160641
31 *1461:A *259:129 4.90071e-05
32 *1461:A *492:44 1.74476e-05
33 *1480:A2 *1480:B1 1.08758e-05
34 *1480:A2 *207:10 4.99619e-05
35 *1481:C1 *1481:B1 0.000160666
36 *1484:A2 *1480:B1 4.66108e-05
37 *1484:A2 *478:53 3.74161e-05
38 *1506:A1 *1507:C 4.66108e-05
39 *166:10 *1658:A1 2.87867e-05
40 *166:10 *263:92 0.000720892
41 *166:10 *478:36 7.06865e-05
42 *166:36 *1484:B1 0.000164111
43 *166:36 *1496:A2 9.12494e-06
44 *166:36 *1658:A1 1.23047e-05
45 *166:36 *478:36 2.92496e-05
46 *166:47 *1496:A2 0.000187622
47 *166:47 *228:39 8.69059e-05
48 *166:69 *263:92 0.000518388
49 *166:71 *259:129 0.00021665
50 *166:71 *480:94 9.54399e-05
51 *166:73 *259:129 0.000149759
52 *166:73 *492:44 3.69421e-05
53 *166:104 *259:129 0.000125714
54 *166:104 *480:94 0.000134245
55 *1440:B *1440:A 8.73389e-06
56 *1440:C *1440:A 0.000155608
57 *1447:C *1440:A 2.07338e-05
58 *1454:B *1454:A 0.000155061
59 *1481:A1 *1481:C1 4.77769e-05
60 *148:16 *1451:A1 0.000118081
61 *148:26 *166:71 7.07879e-05
62 *148:26 *166:73 2.78732e-05
63 *148:35 *1506:A1 4.66108e-05
64 *148:43 *1480:A2 9.80032e-06
65 *150:48 *166:36 1.12156e-05
66 *150:48 *166:47 5.31158e-06
67 *151:26 *1481:C1 7.42548e-05
68 *151:26 *166:47 4.56429e-06
69 *152:12 *166:36 5.31159e-05
70 *155:26 *1454:A 0
71 *156:12 *1440:A 0.000136177
*RES
1 *1439:X *166:4 1.6 
2 *166:4 *166:10 9.53 
3 *166:10 *166:12 2 
4 *166:12 *1480:A2 2.395 
5 *166:12 *1484:A2 2.395 
6 *166:10 *166:36 3.9728 
7 *166:36 *1485:C1 3.6 
8 *166:36 *166:47 4.4 
9 *166:47 *1481:C1 3.91 
10 *166:47 *1496:A1 1.6 
11 *166:4 *166:69 6.935 
12 *166:69 *166:71 2.655 
13 *166:71 *166:73 1.89 
14 *166:73 *1461:A 4.215 
15 *166:73 *1454:A 5.7 
16 *166:71 *1451:A1 4.74 
17 *166:69 *166:104 1.635 
18 *166:104 *1506:A1 4.05 
19 *166:104 *1440:A 9.87 
*END

*D_NET *167 0.00244284
*CONN
*I *1441:B I *D sky130_fd_sc_hd__nand3b_1
*I *1449:A1 I *D sky130_fd_sc_hd__o21ai_1
*I *1440:X O *D sky130_fd_sc_hd__and3_1
*CAP
1 *1441:B 0.000353542
2 *1449:A1 9.47405e-05
3 *1440:X 0.000277012
4 *167:10 0.000725295
5 *1441:B *1450:B1 0
6 *1441:B *1475:A 6.63219e-06
7 *1441:B *1478:B1 5.23974e-05
8 *1441:B *172:48 0.000192319
9 *1441:B *172:68 0.000127373
10 *1441:B *361:36 0
11 *1441:B *482:91 7.9294e-05
12 *1441:B *482:104 4.55864e-06
13 *1449:A1 *1450:B1 4.66742e-05
14 *1449:A1 *238:10 0.000108023
15 *1449:A1 *266:119 3.00381e-05
16 *167:10 *172:68 0.000289492
17 *1440:C *167:10 5.54534e-05
*RES
1 *1440:X *167:10 8.16 
2 *167:10 *1449:A1 5.79 
3 *167:10 *1441:B 10.38 
*END

*D_NET *168 0.00200341
*CONN
*I *1450:A3 I *D sky130_fd_sc_hd__a32oi_1
*I *1442:A1 I *D sky130_fd_sc_hd__a21oi_1
*I *1441:Y O *D sky130_fd_sc_hd__nand3b_1
*CAP
1 *1450:A3 0.000227159
2 *1442:A1 8.8585e-05
3 *1441:Y 0.000143083
4 *168:10 0.000458827
5 *1442:A1 *1478:A1 8.71182e-05
6 *1442:A1 *1646:C 1.79408e-05
7 *1442:A1 *197:6 4.21518e-05
8 *1442:A1 *473:32 0.000159156
9 *1450:A3 *1450:A1 0.000156589
10 *1450:A3 *1450:B1 2.83596e-05
11 *1450:A3 *1450:B2 9.46401e-05
12 *1450:A3 *1478:A2 4.03577e-05
13 *1450:A3 *1478:B1 8.69157e-05
14 *1450:A3 *1478:B2 1.93962e-05
15 *1450:A3 *1594:A1 0.000127179
16 *1450:A3 *1646:C 4.15065e-05
17 *168:10 *1478:B1 0.000157595
18 *168:10 *201:6 2.68526e-05
*RES
1 *1441:Y *168:10 5.94 
2 *168:10 *1442:A1 5.775 
3 *168:10 *1450:A3 9 
*END

*D_NET *169 0.000497217
*CONN
*I *1478:A1 I *D sky130_fd_sc_hd__o22a_1
*I *1442:Y O *D sky130_fd_sc_hd__a21oi_1
*CAP
1 *1478:A1 0.000110622
2 *1442:Y 0.000110622
3 *1478:A1 *1450:B1 1.42229e-05
4 *1478:A1 *1646:C 0.00010579
5 *1478:A1 *473:38 6.88421e-05
6 *1442:A1 *1478:A1 8.71182e-05
*RES
1 *1442:Y *1478:A1 9.3975 
*END

*D_NET *170 0.00808524
*CONN
*I *1444:A2 I *D sky130_fd_sc_hd__o21ai_1
*I *1527:A I *D sky130_fd_sc_hd__nand2_4
*I *1458:A2 I *D sky130_fd_sc_hd__o211a_1
*I *1455:A2 I *D sky130_fd_sc_hd__o21a_1
*I *1463:A1 I *D sky130_fd_sc_hd__o21ai_1
*I *1489:A2 I *D sky130_fd_sc_hd__o211ai_1
*I *1443:Y O *D sky130_fd_sc_hd__inv_2
*CAP
1 *1444:A2 0.000633432
2 *1527:A 0
3 *1458:A2 0.000206579
4 *1455:A2 5.05981e-05
5 *1463:A1 0
6 *1489:A2 0.000257226
7 *1443:Y 0
8 *170:50 0.000834496
9 *170:31 0.000737213
10 *170:25 0.000211646
11 *170:21 0.000869787
12 *170:4 0.000441829
13 *1444:A2 *1424:A 9.17884e-05
14 *1444:A2 *1429:A 1.41095e-05
15 *1444:A2 *1429:B 0.000101715
16 *1444:A2 *1444:A1 4.77807e-05
17 *1444:A2 *1462:A1 0.000119319
18 *1444:A2 *266:28 0.000123842
19 *1444:A2 *481:41 8.57496e-05
20 *1455:A2 *1453:B1_N 2.20014e-05
21 *1455:A2 *1455:A1 4.89295e-05
22 *1455:A2 *1456:B1 4.63944e-05
23 *1455:A2 *181:23 0.000123074
24 *1458:A2 *1452:A 6.16226e-06
25 *1458:A2 *1458:B1 9.13949e-06
26 *1458:A2 *1609:A3 2.01565e-05
27 *1458:A2 *179:40 0.000106344
28 *1458:A2 *181:10 0
29 *1458:A2 *181:53 0
30 *1458:A2 *185:18 0.000157919
31 *1489:A2 *1489:A1 0.000195476
32 *1489:A2 *254:33 0.000159156
33 *1489:A2 *480:33 0.000307132
34 *1489:A2 *492:68 6.63617e-05
35 *170:21 *254:33 0.000238137
36 *170:25 *254:10 6.45236e-05
37 *170:25 *254:33 7.06865e-05
38 *170:31 *1464:B1 7.00889e-06
39 *170:31 *254:10 8.53113e-06
40 *170:31 *266:28 1.53032e-05
41 *170:31 *492:66 0.000238919
42 *170:50 *1464:B1 3.00381e-05
43 *170:50 *266:28 0
44 *170:50 *480:41 3.82239e-05
45 *170:50 *480:56 3.52899e-05
46 *170:50 *481:59 0.000209186
47 *170:50 *492:58 2.06929e-05
48 *170:50 *492:66 3.83041e-05
49 *1453:A2 *1458:A2 8.63585e-05
50 *148:16 *1444:A2 7.07947e-05
51 *148:16 *170:25 7.36562e-05
52 *148:16 *170:31 0.000154004
53 *148:16 *170:50 0
54 *154:19 *1444:A2 0.000387859
55 *155:8 *1444:A2 8.68767e-06
56 *156:12 *1444:A2 0.000193679
*RES
1 *1443:Y *170:4 1.6 
2 *170:4 *1489:A2 11.075 
3 *170:4 *170:21 2.52 
4 *170:21 *170:25 3.635 
5 *170:25 *170:31 6.065 
6 *170:31 *1463:A1 1.6 
7 *170:31 *170:50 5.01277 
8 *170:50 *1455:A2 5.355 
9 *170:50 *1458:A2 7.935 
10 *170:25 *1527:A 3.6 
11 *170:21 *1444:A2 18.35 
*END

*D_NET *171 0.00103669
*CONN
*I *1449:A2 I *D sky130_fd_sc_hd__o21ai_1
*I *1444:Y O *D sky130_fd_sc_hd__o21ai_1
*CAP
1 *1449:A2 0.000179817
2 *1444:Y 0.000179817
3 *1449:A2 *1444:B1 0.000175213
4 *1449:A2 *303:20 0
5 *1449:A2 *482:50 0.00012904
6 *1449:A2 *482:52 0.000107006
7 *1447:C *1449:A2 0.000131046
8 *156:12 *1449:A2 0.00013475
*RES
1 *1444:Y *1449:A2 12.15 
*END

*D_NET *172 0.012206
*CONN
*I *1446:A I *D sky130_fd_sc_hd__clkbuf_4
*I *1504:A3 I *D sky130_fd_sc_hd__a31o_1
*I *1462:A1 I *D sky130_fd_sc_hd__a21oi_1
*I *1505:A1 I *D sky130_fd_sc_hd__a21o_1
*I *1467:A1 I *D sky130_fd_sc_hd__a21oi_2
*I *1475:C I *D sky130_fd_sc_hd__and3_1
*I *1472:A2 I *D sky130_fd_sc_hd__o22ai_1
*I *1497:B1 I *D sky130_fd_sc_hd__o31ai_1
*I *1445:Y O *D sky130_fd_sc_hd__nand2_4
*CAP
1 *1446:A 0
2 *1504:A3 7.3586e-05
3 *1462:A1 0.000337165
4 *1505:A1 0.000215993
5 *1467:A1 0.000199086
6 *1475:C 0
7 *1472:A2 7.36065e-05
8 *1497:B1 0.000483051
9 *1445:Y 0
10 *172:87 0.000429678
11 *172:68 0.000764008
12 *172:48 0.000526309
13 *172:38 0.00118987
14 *172:21 0.000927761
15 *172:6 0.00100365
16 *1462:A1 *263:92 0.000224344
17 *1462:A1 *266:28 0
18 *1462:A1 *480:41 9.50342e-06
19 *1462:A1 *480:94 0.00015639
20 *1462:A1 *481:47 1.86911e-05
21 *1467:A1 *1468:B1 2.6571e-05
22 *1467:A1 *1476:A2 0.000141577
23 *1467:A1 *194:23 4.00541e-06
24 *1467:A1 *195:12 0.000345809
25 *1467:A1 *482:44 6.16161e-06
26 *1472:A2 *174:10 0.00015997
27 *1472:A2 *255:35 3.9442e-05
28 *1472:A2 *303:20 0
29 *1497:B1 *1420:B 0
30 *1497:B1 *1427:A 1.52776e-05
31 *1497:B1 *1427:B 6.74079e-05
32 *1497:B1 *1481:B1 0.000122897
33 *1497:B1 *1498:A 0.000178143
34 *1497:B1 *223:14 0
35 *1497:B1 *225:14 9.22017e-05
36 *1497:B1 *228:39 5.69216e-05
37 *1497:B1 *478:53 0.000177512
38 *1497:B1 *484:10 0
39 *1504:A3 *1504:A2 8.52883e-05
40 *1504:A3 *263:92 0.000348222
41 *1504:A3 *480:94 0.000294775
42 *1505:A1 *1504:A1 1.80525e-05
43 *1505:A1 *1507:A 2.68526e-05
44 *1505:A1 *179:14 4.43871e-06
45 *1505:A1 *181:53 2.56752e-06
46 *1505:A1 *492:44 6.88211e-05
47 *172:21 *173:20 0.000299156
48 *172:21 *255:35 5.98034e-05
49 *172:21 *484:8 0
50 *172:21 *484:10 0
51 *172:38 *173:20 3.42871e-05
52 *172:38 *255:35 0.000382752
53 *172:48 *1472:B2 2.0174e-05
54 *172:48 *361:36 8.20852e-05
55 *172:48 *482:44 7.49952e-07
56 *172:48 *482:50 0.000181376
57 *172:48 *482:91 7.33703e-05
58 *172:68 *1444:B1 9.41223e-05
59 *172:68 *1449:B1 0.000117832
60 *172:68 *1507:A 0
61 *172:68 *173:162 0
62 *172:68 *482:50 0.000102134
63 *172:68 *482:52 6.03575e-05
64 *172:68 *492:42 0.000122537
65 *172:68 *492:44 0.00010526
66 *172:87 *263:92 4.9763e-06
67 *1440:A *172:68 0
68 *1441:B *172:48 0.000192319
69 *1441:B *172:68 0.000127373
70 *1444:A2 *1462:A1 0.000119319
71 *1453:A2 *1505:A1 2.86975e-05
72 *1821:A *1497:B1 7.97032e-05
73 *1821:A *172:21 0.000110323
74 *150:48 *1497:B1 7.96104e-06
75 *151:26 *1497:B1 0.000109743
76 *152:12 *1497:B1 0.000162508
77 *154:19 *1462:A1 8.53113e-06
78 *155:18 *1462:A1 0.000155176
79 *155:26 *1462:A1 0.000158281
80 *167:10 *172:68 0.000289492
*RES
1 *1445:Y *172:6 3.6 
2 *172:6 *1497:B1 15.18 
3 *172:6 *172:21 11.06 
4 *172:21 *1472:A2 7.49 
5 *172:21 *172:38 6.605 
6 *172:38 *172:48 8.21 
7 *172:48 *1475:C 1.6 
8 *172:48 *1467:A1 6.61 
9 *172:38 *172:68 11.58 
10 *172:68 *1505:A1 7.095 
11 *172:68 *172:87 2.36 
12 *172:87 *1462:A1 13.685 
13 *172:87 *1504:A3 5.155 
14 *172:21 *1446:A 1.6 
*END

*D_NET *173 0.0240014
*CONN
*I *1468:A3 I *D sky130_fd_sc_hd__a31o_1
*I *1448:A1 I *D sky130_fd_sc_hd__a21o_1
*I *1503:A1 I *D sky130_fd_sc_hd__a21oi_2
*I *1609:A2 I *D sky130_fd_sc_hd__a31o_1
*I *1549:A2 I *D sky130_fd_sc_hd__a31o_1
*I *1559:A1 I *D sky130_fd_sc_hd__a22o_1
*I *1574:A1 I *D sky130_fd_sc_hd__a22o_1
*I *1528:A I *D sky130_fd_sc_hd__nand2_2
*I *1620:A2 I *D sky130_fd_sc_hd__a32o_1
*I *1625:A2 I *D sky130_fd_sc_hd__a32o_1
*I *1446:X O *D sky130_fd_sc_hd__clkbuf_4
*CAP
1 *1468:A3 0.000148841
2 *1448:A1 6.83939e-05
3 *1503:A1 0
4 *1609:A2 0.000226878
5 *1549:A2 0.000220519
6 *1559:A1 0
7 *1574:A1 0.000839242
8 *1528:A 1.91345e-05
9 *1620:A2 6.68057e-05
10 *1625:A2 0.000530276
11 *1446:X 0
12 *173:162 0.000772672
13 *173:158 0.000916934
14 *173:152 0.000761331
15 *173:107 0.00188778
16 *173:91 0.00216396
17 *173:75 0.00127336
18 *173:30 0.0014218
19 *173:20 0.00207573
20 *173:4 0.00130059
21 *1448:A1 *1448:A2 3.80278e-05
22 *1448:A1 *1448:B1 4.00541e-06
23 *1448:A1 *229:16 0.00016031
24 *1468:A3 *1450:B1 5.91124e-05
25 *1468:A3 *1468:A2 4.84768e-05
26 *1468:A3 *1478:B1 0
27 *1528:A *255:10 7.47284e-05
28 *1549:A2 *1525:A1 0.0001311
29 *1549:A2 *1549:A3 1.92979e-05
30 *1549:A2 *1661:A1 0
31 *1549:A2 *251:16 2.68721e-05
32 *1574:A1 *1549:A3 3.60024e-06
33 *1574:A1 *1559:B1 5.29016e-05
34 *1574:A1 *1562:B 3.1562e-06
35 *1574:A1 *1562:C_N 7.89884e-05
36 *1574:A1 *1576:B1 4.38278e-05
37 *1574:A1 *254:99 3.32192e-05
38 *1574:A1 *278:42 0
39 *1574:A1 *389:157 8.70601e-05
40 *1609:A2 *1461:C 0
41 *1609:A2 *1503:B1 0.000122801
42 *1609:A2 *1609:B1 2.37321e-05
43 *1609:A2 *178:12 0.000238967
44 *1609:A2 *178:33 1.34361e-05
45 *1609:A2 *185:18 0.00015345
46 *1609:A2 *230:6 0.00012653
47 *1609:A2 *469:45 0.000179981
48 *1620:A2 *1621:B1 4.35938e-05
49 *1625:A2 *1620:A3 3.89665e-05
50 *1625:A2 *1624:B1 0.000136884
51 *1625:A2 *1625:A3 0.000168361
52 *1625:A2 *1645:B1 9.17274e-05
53 *1625:A2 *1645:B2 0.000149537
54 *1625:A2 *254:48 0.000380097
55 *1625:A2 *383:48 0
56 *1625:A2 *461:27 0.000138551
57 *1625:A2 *467:31 6.44968e-05
58 *173:20 *238:10 0
59 *173:20 *255:35 0.000500692
60 *173:20 *361:42 0.000790082
61 *173:20 *484:8 0.000114492
62 *173:30 *1501:B1_N 0.000132176
63 *173:30 *1615:C1 0.000143266
64 *173:30 *1620:A3 5.49838e-05
65 *173:30 *209:14 2.4002e-05
66 *173:30 *254:63 0.000440016
67 *173:30 *361:42 0.000217592
68 *173:30 *383:48 0
69 *173:75 *255:35 4.43682e-05
70 *173:91 *1469:A 0.00011381
71 *173:91 *1472:B2 4.05358e-05
72 *173:91 *1525:A2 9.45457e-05
73 *173:91 *1646:A 0.00032971
74 *173:91 *252:12 5.53249e-06
75 *173:91 *256:21 0
76 *173:91 *266:119 0.000196154
77 *173:91 *266:155 0.000120452
78 *173:91 *303:20 0.000175228
79 *173:91 *390:14 0.000338566
80 *173:91 *473:25 0.000155928
81 *173:91 *483:61 0.000199963
82 *173:107 *1517:B1 4.77719e-05
83 *173:107 *1520:B1 0.00011577
84 *173:107 *1525:A2 0.0001228
85 *173:107 *1557:A1 1.5567e-05
86 *173:107 *1557:A2 0.000131098
87 *173:107 *1558:B1 9.21008e-05
88 *173:107 *246:33 9.52646e-05
89 *173:107 *389:157 0
90 *173:152 *255:35 0.00019816
91 *173:158 *1450:B1 0.000160658
92 *173:158 *1478:B1 0
93 *173:158 *1608:A 0
94 *173:162 *1504:A1 2.26364e-05
95 *173:162 *1507:A 0.000297006
96 *173:162 *1507:B 0
97 *173:162 *1607:B1 0
98 *173:162 *1608:A 0
99 *173:162 *181:53 4.1652e-06
100 *173:162 *228:39 2.98383e-05
101 *173:162 *480:75 9.50342e-06
102 *173:162 *480:88 0.000129728
103 *1453:A2 *1609:A2 1.08758e-05
104 *1557:B1 *173:107 6.08075e-05
105 *153:41 *1528:A 7.47284e-05
106 *165:10 *1574:A1 8.48377e-05
107 *165:10 *173:107 0.000102489
108 *172:21 *173:20 0.000299156
109 *172:38 *173:20 3.42871e-05
110 *172:68 *173:162 0
*RES
1 *1446:X *173:4 1.6 
2 *173:4 *173:20 24.955 
3 *173:20 *173:30 18.035 
4 *173:30 *1625:A2 14.91 
5 *173:30 *1620:A2 4.755 
6 *173:20 *1528:A 6.47 
7 *173:4 *173:75 1.14 
8 *173:75 *173:91 24.6475 
9 *173:91 *173:107 18.9025 
10 *173:107 *1574:A1 17.84 
11 *173:107 *1559:A1 1.6 
12 *173:91 *1549:A2 9.2975 
13 *173:75 *173:152 6.935 
14 *173:152 *173:158 5.505 
15 *173:158 *173:162 11.795 
16 *173:162 *1609:A2 12.02 
17 *173:162 *1503:A1 1.6 
18 *173:158 *1448:A1 5.445 
19 *173:152 *1468:A3 6.135 
*END

*D_NET *174 0.00645184
*CONN
*I *1448:A2 I *D sky130_fd_sc_hd__a21o_1
*I *1473:A2 I *D sky130_fd_sc_hd__o21a_2
*I *1472:B1 I *D sky130_fd_sc_hd__o22ai_1
*I *1467:A2 I *D sky130_fd_sc_hd__a21oi_2
*I *1468:A1 I *D sky130_fd_sc_hd__a31o_1
*I *1475:A I *D sky130_fd_sc_hd__and3_1
*I *1447:Y O *D sky130_fd_sc_hd__nand3_4
*CAP
1 *1448:A2 0.000493559
2 *1473:A2 0.000200018
3 *1472:B1 5.44659e-05
4 *1467:A2 9.51822e-05
5 *1468:A1 2.41741e-05
6 *1475:A 1.28756e-05
7 *1447:Y 6.36179e-05
8 *174:53 0.000270098
9 *174:27 0.000392977
10 *174:14 0.000831449
11 *174:10 0.000785977
12 *174:6 0.000782587
13 *1448:A2 *1448:B1 7.03053e-05
14 *1448:A2 *229:16 2.97272e-05
15 *1467:A2 *1468:B1 1.88602e-05
16 *1467:A2 *1478:B1 6.15576e-06
17 *1467:A2 *361:36 0.000119243
18 *1468:A1 *1468:A2 8.7152e-06
19 *1468:A1 *1468:B1 2.06509e-05
20 *1472:B1 *1474:A1 5.11924e-05
21 *1472:B1 *361:36 9.12495e-06
22 *1473:A2 *1470:A1 6.27852e-05
23 *1473:A2 *1472:A1 6.57949e-06
24 *1473:A2 *1474:A1 6.33733e-05
25 *1473:A2 *1474:A2 0
26 *1473:A2 *303:20 0
27 *174:10 *1472:A1 7.96104e-06
28 *174:10 *266:28 2.56866e-05
29 *174:10 *303:20 0
30 *174:14 *1647:C1 0.000243196
31 *174:27 *1647:C1 4.6194e-05
32 *174:27 *361:36 0.000275939
33 *174:53 *1472:A1 6.12722e-06
34 *1441:B *1475:A 6.63219e-06
35 *1447:A *1448:A2 3.45679e-05
36 *1447:B *1448:A2 2.30292e-05
37 *1447:B *174:6 4.92062e-05
38 *1447:C *1448:A2 6.50978e-05
39 *1448:A1 *1448:A2 3.80278e-05
40 *1470:B1 *1473:A2 9.5433e-05
41 *1472:A2 *174:10 0.00015997
42 *1473:B1 *1473:A2 5.31158e-06
43 *157:12 *1473:A2 0.00032163
44 *157:12 *174:10 0.000495989
45 *157:12 *174:53 1.03592e-05
46 *157:23 *1473:A2 1.15688e-05
47 *160:8 *1473:A2 4.19155e-05
48 *160:35 *1473:A2 1.43094e-05
*RES
1 *1447:Y *174:6 2.395 
2 *174:6 *174:10 7.8425 
3 *174:10 *174:14 1.47027 
4 *174:14 *1475:A 4.3325 
5 *174:14 *174:27 0.5624 
6 *174:27 *1468:A1 4.5875 
7 *174:27 *1467:A2 4.5453 
8 *174:10 *174:53 0.2325 
9 *174:53 *1472:B1 4.395 
10 *174:53 *1473:A2 9.315 
11 *174:6 *1448:A2 8.755 
*END

*D_NET *175 0.000299017
*CONN
*I *1449:B1 I *D sky130_fd_sc_hd__o21ai_1
*I *1448:X O *D sky130_fd_sc_hd__a21o_1
*CAP
1 *1449:B1 3.16766e-05
2 *1448:X 3.16766e-05
3 *1449:B1 *482:50 0.000117832
4 *172:68 *1449:B1 0.000117832
*RES
1 *1448:X *1449:B1 8.58 
*END

*D_NET *176 0.00235867
*CONN
*I *1450:B1 I *D sky130_fd_sc_hd__a32oi_1
*I *1449:Y O *D sky130_fd_sc_hd__o21ai_1
*CAP
1 *1450:B1 0.000826036
2 *1449:Y 0.000826036
3 *1450:B1 *1450:B2 2.83596e-05
4 *1450:B1 *1468:B1 0
5 *1450:B1 *1478:B1 0
6 *1450:B1 *1478:B2 0
7 *1450:B1 *1647:C1 0.000144371
8 *1450:B1 *238:10 6.71744e-05
9 *1450:B1 *361:36 8.41015e-06
10 *1450:B1 *473:38 5.47426e-05
11 *1441:B *1450:B1 0
12 *1442:A2 *1450:B1 9.45101e-05
13 *1449:A1 *1450:B1 4.66742e-05
14 *1450:A3 *1450:B1 2.83596e-05
15 *1468:A3 *1450:B1 5.91124e-05
16 *1478:A1 *1450:B1 1.42229e-05
17 *173:158 *1450:B1 0.000160658
*RES
1 *1449:Y *1450:B1 20.3175 
*END

*D_NET *177 0.000323237
*CONN
*I *1478:A2 I *D sky130_fd_sc_hd__o22a_1
*I *1450:Y O *D sky130_fd_sc_hd__a32oi_1
*CAP
1 *1478:A2 3.68115e-05
2 *1450:Y 3.68115e-05
3 *1478:A2 *1450:B2 4.89362e-05
4 *1478:A2 *1478:B2 0.00016032
5 *1450:A3 *1478:A2 4.03577e-05
*RES
1 *1450:Y *1478:A2 4.685 
*END

*D_NET *178 0.00446989
*CONN
*I *1459:A2 I *D sky130_fd_sc_hd__o21ai_1
*I *1508:A1 I *D sky130_fd_sc_hd__o211ai_2
*I *1457:A1 I *D sky130_fd_sc_hd__o21ai_1
*I *1451:Y O *D sky130_fd_sc_hd__a21oi_2
*CAP
1 *1459:A2 0
2 *1508:A1 0.000407781
3 *1457:A1 0.000132726
4 *1451:Y 0.000669071
5 *178:33 0.000567634
6 *178:12 0.00096165
7 *1457:A1 *1457:A2 1.82682e-05
8 *1457:A1 *1609:A3 0
9 *1457:A1 *1609:B1 4.66108e-05
10 *1457:A1 *470:36 4.15208e-05
11 *1457:A1 *470:46 6.69608e-06
12 *1508:A1 *1459:A1 1.65432e-05
13 *1508:A1 *1508:A2 0.000349521
14 *1508:A1 *183:12 2.01885e-05
15 *1508:A1 *470:26 6.82452e-05
16 *178:12 *1609:B1 4.5783e-05
17 *178:12 *185:18 0.000151493
18 *178:33 *1457:A2 6.92741e-05
19 *178:33 *1508:A2 0
20 *178:33 *1609:B1 2.92496e-05
21 *178:33 *317:18 4.24292e-06
22 *178:33 *469:45 2.83338e-05
23 *178:33 *470:36 0.000135406
24 *1453:A2 *178:12 0.00036724
25 *1609:A2 *178:12 0.000238967
26 *1609:A2 *178:33 1.34361e-05
27 *148:16 *178:12 2.0514e-05
28 *148:20 *178:12 5.94962e-05
*RES
1 *1451:Y *178:12 13.125 
2 *178:12 *1457:A1 5.7 
3 *178:12 *178:33 5.405 
4 *178:33 *1508:A1 8.245 
5 *178:33 *1459:A2 1.6 
*END

*D_NET *179 0.00403164
*CONN
*I *1459:A1 I *D sky130_fd_sc_hd__o21ai_1
*I *1453:A1 I *D sky130_fd_sc_hd__o21bai_1
*I *1458:B1 I *D sky130_fd_sc_hd__o211a_1
*I *1505:B1 I *D sky130_fd_sc_hd__a21o_1
*I *1461:C I *D sky130_fd_sc_hd__nand3_1
*I *1452:Y O *D sky130_fd_sc_hd__inv_2
*CAP
1 *1459:A1 0.000134305
2 *1453:A1 0.000139924
3 *1458:B1 1.64497e-05
4 *1505:B1 1.30301e-05
5 *1461:C 0.000294246
6 *1452:Y 2.21004e-05
7 *179:57 0.000383093
8 *179:40 0.000234317
9 *179:14 0.000456101
10 *179:6 0.000279929
11 *1453:A1 *1456:A1 5.06989e-05
12 *1453:A1 *1456:B1 4.30959e-05
13 *1459:A1 *1456:B1 3.47912e-05
14 *1459:A1 *180:8 4.01778e-05
15 *1459:A1 *183:12 0.000163487
16 *1461:C *1507:A 4.99619e-05
17 *1461:C *303:20 0.00024552
18 *1461:C *481:47 0.000250242
19 *1505:B1 *1507:A 2.10214e-05
20 *179:14 *1458:A1 0.000122699
21 *179:14 *1609:A3 3.37462e-05
22 *179:14 *181:10 2.85364e-05
23 *179:14 *181:53 0.00012917
24 *179:14 *492:44 0.000117279
25 *179:40 *1458:A1 0.000218592
26 *179:40 *1609:A3 2.23477e-05
27 *179:40 *185:18 1.52352e-05
28 *179:57 *1456:A1 0
29 *179:57 *1458:C1 8.4018e-05
30 *179:57 *185:18 3.08022e-05
31 *1451:A1 *1461:C 0.000118081
32 *1453:A2 *1461:C 4.01778e-05
33 *1453:A2 *1505:B1 2.68526e-05
34 *1458:A2 *1458:B1 9.13949e-06
35 *1458:A2 *179:40 0.000106344
36 *1505:A1 *179:14 4.43871e-06
37 *1508:A1 *1459:A1 1.65432e-05
38 *1609:A2 *1461:C 0
39 *148:16 *1461:C 2.16917e-05
40 *148:20 *1461:C 1.34503e-05
*RES
1 *1452:Y *179:6 1.96 
2 *179:6 *179:14 7.795 
3 *179:14 *1461:C 12.095 
4 *179:14 *1505:B1 2.05 
5 *179:6 *179:40 2.865 
6 *179:40 *1458:B1 1.96 
7 *179:40 *179:57 6.025 
8 *179:57 *1453:A1 3.7 
9 *179:57 *1459:A1 4.6 
*END

*D_NET *180 0.00265996
*CONN
*I *1508:A2 I *D sky130_fd_sc_hd__o211ai_2
*I *1457:A2 I *D sky130_fd_sc_hd__o21ai_1
*I *1453:Y O *D sky130_fd_sc_hd__o21bai_1
*CAP
1 *1508:A2 0.000159798
2 *1457:A2 0.000259609
3 *1453:Y 0.000130555
4 *180:8 0.000549962
5 *1457:A2 *184:8 0
6 *1457:A2 *317:18 0
7 *1457:A2 *469:45 0.000159964
8 *1457:A2 *470:36 7.15231e-05
9 *1457:A2 *470:46 5.83121e-06
10 *1508:A2 *183:12 9.27255e-06
11 *1508:A2 *470:26 0.000190637
12 *1508:A2 *470:36 4.82863e-05
13 *180:8 *1456:B1 0.000310682
14 *180:8 *1458:C1 4.82863e-05
15 *180:8 *181:23 0.000238318
16 *1457:A1 *1457:A2 1.82682e-05
17 *1459:A1 *180:8 4.01778e-05
18 *1508:A1 *1508:A2 0.000349521
19 *178:33 *1457:A2 6.92741e-05
20 *178:33 *1508:A2 0
*RES
1 *1453:Y *180:8 7.5 
2 *180:8 *1457:A2 7.935 
3 *180:8 *1508:A2 7.875 
*END

*D_NET *181 0.00485755
*CONN
*I *1504:A1 I *D sky130_fd_sc_hd__a31o_1
*I *1503:A2 I *D sky130_fd_sc_hd__a21oi_2
*I *1505:A2 I *D sky130_fd_sc_hd__a21o_1
*I *1458:C1 I *D sky130_fd_sc_hd__o211a_1
*I *1456:A2 I *D sky130_fd_sc_hd__o21ai_1
*I *1463:B1 I *D sky130_fd_sc_hd__o21ai_1
*I *1454:Y O *D sky130_fd_sc_hd__nand2_2
*CAP
1 *1504:A1 0.000291405
2 *1503:A2 0
3 *1505:A2 1.45076e-05
4 *1458:C1 0.000170554
5 *1456:A2 0
6 *1463:B1 0.000202169
7 *1454:Y 0
8 *181:55 1.45076e-05
9 *181:53 0.000605813
10 *181:23 0.000491771
11 *181:10 0.000668412
12 *181:6 0.000459435
13 *1458:C1 *1456:A1 0
14 *1458:C1 *1458:A1 0
15 *1458:C1 *185:18 2.75145e-05
16 *1458:C1 *325:14 0.000182478
17 *1458:C1 *469:45 1.614e-05
18 *1458:C1 *470:46 8.53113e-06
19 *1463:B1 *1455:A1 0.000113237
20 *1463:B1 *492:58 0.000278448
21 *1504:A1 *1504:A2 0.000141397
22 *1504:A1 *1507:A 6.88421e-05
23 *1504:A1 *263:92 1.84862e-05
24 *1504:A1 *480:94 0.000118081
25 *1505:A2 *1507:A 2.68464e-05
26 *181:10 *1452:A 1.88656e-05
27 *181:10 *481:59 0.000100134
28 *181:10 *492:44 5.69898e-06
29 *181:10 *492:48 9.77152e-06
30 *181:23 *1455:A1 1.49157e-05
31 *181:23 *1456:B1 3.04901e-05
32 *181:53 *1452:A 8.7152e-06
33 *181:53 *480:75 1.23673e-05
34 *1453:A2 *1505:A2 2.68464e-05
35 *1453:A2 *181:53 1.23467e-05
36 *1455:A2 *181:23 0.000123074
37 *1458:A2 *181:10 0
38 *1458:A2 *181:53 0
39 *1505:A1 *1504:A1 1.80525e-05
40 *1505:A1 *181:53 2.56752e-06
41 *173:162 *1504:A1 2.26364e-05
42 *173:162 *181:53 4.1652e-06
43 *179:14 *181:10 2.85364e-05
44 *179:14 *181:53 0.00012917
45 *179:57 *1458:C1 8.4018e-05
46 *180:8 *1458:C1 4.82863e-05
47 *180:8 *181:23 0.000238318
*RES
1 *1454:Y *181:6 3.6 
2 *181:6 *181:10 4.4 
3 *181:10 *1463:B1 5.515 
4 *181:10 *181:23 4.605 
5 *181:23 *1456:A2 1.6 
6 *181:23 *1458:C1 9.155 
7 *181:6 *181:53 4.2 
8 *181:53 *181:55 2 
9 *181:55 *1505:A2 2.05 
10 *181:55 *1503:A2 1.6 
11 *181:53 *1504:A1 8.115 
*END

*D_NET *182 0.00148814
*CONN
*I *1456:B1 I *D sky130_fd_sc_hd__o21ai_1
*I *1464:A2 I *D sky130_fd_sc_hd__a22oi_1
*I *1455:X O *D sky130_fd_sc_hd__o21a_1
*CAP
1 *1456:B1 0.000273024
2 *1464:A2 6.70507e-05
3 *1455:X 0
4 *182:4 0.000340074
5 *1456:B1 *1453:B1_N 0.000158536
6 *1456:B1 *1455:A1 3.7712e-05
7 *1456:B1 *1456:A1 8.64421e-05
8 *1464:A2 *1455:A1 5.83121e-06
9 *1464:A2 *1464:B1 4.72562e-06
10 *1464:A2 *492:58 4.92921e-05
11 *1453:A1 *1456:B1 4.30959e-05
12 *1455:A2 *1456:B1 4.63944e-05
13 *1459:A1 *1456:B1 3.47912e-05
14 *180:8 *1456:B1 0.000310682
15 *181:23 *1456:B1 3.04901e-05
*RES
1 *1455:X *182:4 1.6 
2 *182:4 *1464:A2 2.73625 
3 *182:4 *1456:B1 8.29 
*END

*D_NET *183 0.00136202
*CONN
*I *1457:B1 I *D sky130_fd_sc_hd__o21ai_1
*I *1508:C1 I *D sky130_fd_sc_hd__o211ai_2
*I *1456:Y O *D sky130_fd_sc_hd__o21ai_1
*CAP
1 *1457:B1 0.000131048
2 *1508:C1 0
3 *1456:Y 0.000227575
4 *183:12 0.000358622
5 *1457:B1 *1466:B1 1.97849e-05
6 *1457:B1 *1508:B1 8.53113e-06
7 *1457:B1 *1606:B2 0.000139933
8 *1457:B1 *184:8 5.83121e-06
9 *1457:B1 *186:6 2.05056e-05
10 *1457:B1 *317:18 9.9747e-05
11 *1457:B1 *470:26 4.99619e-05
12 *183:12 *186:6 4.82919e-05
13 *183:12 *470:26 3.42469e-05
14 *183:12 *470:36 2.49909e-05
15 *1459:A1 *183:12 0.000163487
16 *1508:A1 *183:12 2.01885e-05
17 *1508:A2 *183:12 9.27255e-06
*RES
1 *1456:Y *183:12 5.29 
2 *183:12 *1508:C1 1.6 
3 *183:12 *1457:B1 8.645 
*END

*D_NET *184 0.000957223
*CONN
*I *1509:A I *D sky130_fd_sc_hd__nand2_1
*I *1466:A2 I *D sky130_fd_sc_hd__o21ai_2
*I *1457:Y O *D sky130_fd_sc_hd__o21ai_1
*CAP
1 *1509:A 8.026e-05
2 *1466:A2 0
3 *1457:Y 9.69663e-05
4 *184:8 0.000177226
5 *1509:A *1466:B1 4.36954e-05
6 *1509:A *1509:B 0.000186099
7 *1509:A *1604:A1 3.13459e-05
8 *1509:A *193:16 0.000143266
9 *1509:A *235:8 1.15688e-05
10 *1509:A *471:31 8.53113e-06
11 *1509:A *471:37 4.77719e-05
12 *184:8 *1466:B1 0.000120655
13 *184:8 *471:37 4.00541e-06
14 *1457:A2 *184:8 0
15 *1457:B1 *184:8 5.83121e-06
*RES
1 *1457:Y *184:8 3.445 
2 *184:8 *1466:A2 1.6 
3 *184:8 *1509:A 8.795 
*END

*D_NET *185 0.00328147
*CONN
*I *1606:B1 I *D sky130_fd_sc_hd__o22a_1
*I *1465:A1 I *D sky130_fd_sc_hd__o22ai_1
*I *1458:X O *D sky130_fd_sc_hd__o211a_1
*CAP
1 *1606:B1 0
2 *1465:A1 0.000304983
3 *1458:X 0.000273709
4 *185:18 0.000578692
5 *1465:A1 *1465:A2 0.000180675
6 *1465:A1 *1466:B1 3.23391e-05
7 *1465:A1 *1508:B1 8.09021e-06
8 *1465:A1 *1606:A1 0
9 *1465:A1 *1606:A2 0.000128012
10 *1465:A1 *1606:B2 6.95422e-05
11 *1465:A1 *230:6 8.82557e-05
12 *1465:A1 *235:8 0.000337531
13 *1465:A1 *317:18 0
14 *1465:A1 *471:31 0
15 *185:18 *1606:A2 7.85722e-05
16 *185:18 *1609:A3 0.000307604
17 *185:18 *230:6 0.000244925
18 *185:18 *470:46 0.000112123
19 *185:18 *480:75 0
20 *1458:A2 *185:18 0.000157919
21 *1458:C1 *185:18 2.75145e-05
22 *1609:A2 *185:18 0.00015345
23 *178:12 *185:18 0.000151493
24 *179:40 *185:18 1.52352e-05
25 *179:57 *185:18 3.08022e-05
*RES
1 *1458:X *185:18 14.12 
2 *185:18 *1465:A1 13.775 
3 *185:18 *1606:B1 1.6 
*END

*D_NET *186 0.00155444
*CONN
*I *1465:A2 I *D sky130_fd_sc_hd__o22ai_1
*I *1606:B2 I *D sky130_fd_sc_hd__o22a_1
*I *1459:Y O *D sky130_fd_sc_hd__o21ai_1
*CAP
1 *1465:A2 0.000126804
2 *1606:B2 0.000135213
3 *1459:Y 9.2464e-05
4 *186:6 0.000354481
5 *1465:A2 *1466:B1 0.000178314
6 *1465:A2 *470:26 5.49536e-05
7 *1606:B2 *1466:B1 7.23602e-05
8 *1606:B2 *235:8 0
9 *1606:B2 *317:18 6.74577e-05
10 *186:6 *470:26 1.34503e-05
11 *1457:B1 *1606:B2 0.000139933
12 *1457:B1 *186:6 2.05056e-05
13 *1465:A1 *1465:A2 0.000180675
14 *1465:A1 *1606:B2 6.95422e-05
15 *183:12 *186:6 4.82919e-05
*RES
1 *1459:Y *186:6 2.74 
2 *186:6 *1606:B2 9.275 
3 *186:6 *1465:A2 8.54 
*END

*D_NET *187 0.000735303
*CONN
*I *1508:B1 I *D sky130_fd_sc_hd__o211ai_2
*I *1465:B1 I *D sky130_fd_sc_hd__o22ai_1
*I *1460:Y O *D sky130_fd_sc_hd__inv_2
*CAP
1 *1508:B1 6.47674e-05
2 *1465:B1 2.35498e-05
3 *1460:Y 0.000116248
4 *187:6 0.000204565
5 *1465:B1 *1465:B2 4.99619e-05
6 *1508:B1 *1466:B1 0.000136182
7 *1508:B1 *317:18 5.64057e-05
8 *187:6 *1460:A 2.86975e-05
9 *187:6 *1465:B2 3.83041e-05
10 *1457:B1 *1508:B1 8.53113e-06
11 *1465:A1 *1508:B1 8.09021e-06
*RES
1 *1460:Y *187:6 3.43 
2 *187:6 *1465:B1 2.05 
3 *187:6 *1508:B1 7.49 
*END

*D_NET *188 0.000212843
*CONN
*I *1464:A1 I *D sky130_fd_sc_hd__a22oi_1
*I *1461:Y O *D sky130_fd_sc_hd__nand3_1
*CAP
1 *1464:A1 4.47571e-05
2 *1461:Y 4.47571e-05
3 *1464:A1 *259:129 9.06149e-05
4 *1464:A1 *492:48 3.27144e-05
*RES
1 *1461:Y *1464:A1 8.325 
*END

*D_NET *189 0.000687124
*CONN
*I *1464:B1 I *D sky130_fd_sc_hd__a22oi_1
*I *1462:Y O *D sky130_fd_sc_hd__a21oi_1
*CAP
1 *1464:B1 0.000243545
2 *1462:Y 0.000243545
3 *1464:B1 *1462:B1 1.32064e-05
4 *1464:B1 *1464:B2 4.99619e-05
5 *1464:B1 *266:28 2.87867e-05
6 *1464:B1 *481:59 6.57653e-06
7 *1464:B1 *492:58 5.97301e-05
8 *1464:A2 *1464:B1 4.72562e-06
9 *170:31 *1464:B1 7.00889e-06
10 *170:50 *1464:B1 3.00381e-05
*RES
1 *1462:Y *1464:B1 10.7325 
*END

*D_NET *190 0.000111545
*CONN
*I *1464:B2 I *D sky130_fd_sc_hd__a22oi_1
*I *1463:Y O *D sky130_fd_sc_hd__o21ai_1
*CAP
1 *1464:B2 5.81042e-06
2 *1463:Y 5.81042e-06
3 *1464:B2 *492:58 4.99619e-05
4 *1464:B1 *1464:B2 4.99619e-05
*RES
1 *1463:Y *1464:B2 3.65 
*END

*D_NET *191 0.00201032
*CONN
*I *1465:B2 I *D sky130_fd_sc_hd__o22ai_1
*I *1464:Y O *D sky130_fd_sc_hd__a22oi_1
*CAP
1 *1465:B2 0.000913304
2 *1464:Y 0.000913304
3 *1465:B2 *266:28 0
4 *1465:B2 *303:20 9.54469e-05
5 *1465:B1 *1465:B2 4.99619e-05
6 *187:6 *1465:B2 3.83041e-05
*RES
1 *1464:Y *1465:B2 20.625 
*END

*D_NET *192 0.00125942
*CONN
*I *1466:B1 I *D sky130_fd_sc_hd__o21ai_2
*I *1465:Y O *D sky130_fd_sc_hd__o22ai_1
*CAP
1 *1466:B1 0.000321321
2 *1465:Y 0.000321321
3 *1466:B1 *471:37 1.34503e-05
4 *1457:B1 *1466:B1 1.97849e-05
5 *1465:A1 *1466:B1 3.23391e-05
6 *1465:A2 *1466:B1 0.000178314
7 *1508:B1 *1466:B1 0.000136182
8 *1509:A *1466:B1 4.36954e-05
9 *1606:B2 *1466:B1 7.23602e-05
10 *184:8 *1466:B1 0.000120655
*RES
1 *1465:Y *1466:B1 12.99 
*END

*D_NET *193 0.00730059
*CONN
*I *1478:B1 I *D sky130_fd_sc_hd__o22a_1
*I *1590:A2 I *D sky130_fd_sc_hd__a21o_1
*I *1598:A3 I *D sky130_fd_sc_hd__a31o_1
*I *1597:A2 I *D sky130_fd_sc_hd__a21oi_1
*I *1466:Y O *D sky130_fd_sc_hd__o21ai_2
*CAP
1 *1478:B1 0.00109415
2 *1590:A2 0
3 *1598:A3 1.93533e-05
4 *1597:A2 6.29323e-05
5 *1466:Y 0.000521098
6 *193:44 0.0012383
7 *193:29 0.000349357
8 *193:16 0.000769887
9 *1478:B1 *1468:A2 0
10 *1478:B1 *1468:B1 0
11 *1478:B1 *1477:A1 7.23533e-05
12 *1478:B1 *1477:C1 5.96515e-05
13 *1478:B1 *1477:D1 2.10034e-05
14 *1478:B1 *1511:A 0.000114795
15 *1478:B1 *1594:A1 2.59569e-05
16 *1478:B1 *1597:B1 8.65961e-05
17 *1478:B1 *1647:C1 0
18 *1478:B1 *195:12 7.06865e-05
19 *1478:B1 *195:16 4.66108e-05
20 *1478:B1 *201:6 0.000164324
21 *1478:B1 *255:52 0.000165787
22 *1478:B1 *266:119 1.86688e-05
23 *1478:B1 *308:18 8.40213e-05
24 *1478:B1 *309:10 3.00381e-05
25 *1478:B1 *479:24 0.000222912
26 *1478:B1 *482:104 3.11483e-05
27 *1597:A2 *259:102 9.06961e-05
28 *1597:A2 *307:21 4.77757e-05
29 *1598:A3 *1598:A1 2.49909e-05
30 *1598:A3 *1598:A2 2.49909e-05
31 *193:16 *1601:A1 4.28769e-05
32 *193:16 *1604:A1 0.000113055
33 *193:16 *1604:B1 8.66454e-06
34 *193:16 *230:23 0.000146319
35 *193:16 *235:8 5.13597e-05
36 *193:16 *235:25 0.000129449
37 *193:16 *259:102 0.000272625
38 *193:16 *263:100 0
39 *193:16 *385:102 0
40 *193:29 *1598:B1 0
41 *193:29 *259:102 2.05056e-05
42 *193:29 *307:21 0
43 *193:29 *385:102 0.000204456
44 *193:44 *1599:B1 5.12942e-05
45 *193:44 *255:52 0.000197269
46 *193:44 *385:102 0.000158297
47 *1441:B *1478:B1 5.23974e-05
48 *1450:A3 *1478:B1 8.69157e-05
49 *1450:B1 *1478:B1 0
50 *1467:A2 *1478:B1 6.15576e-06
51 *1468:A3 *1478:B1 0
52 *1509:A *193:16 0.000143266
53 *168:10 *1478:B1 0.000157595
54 *173:158 *1478:B1 0
*RES
1 *1466:Y *193:16 18.185 
2 *193:16 *1597:A2 3.085 
3 *193:16 *193:29 5.54 
4 *193:29 *1598:A3 4.05 
5 *193:29 *193:44 5.72 
6 *193:44 *1590:A2 1.6 
7 *193:44 *1478:B1 28.845 
*END

*D_NET *194 0.00167051
*CONN
*I *1589:A1 I *D sky130_fd_sc_hd__o21ai_1
*I *1479:A1 I *D sky130_fd_sc_hd__o2111a_1
*I *1476:A1 I *D sky130_fd_sc_hd__o21ai_2
*I *1477:A1 I *D sky130_fd_sc_hd__o2111ai_1
*I *1467:Y O *D sky130_fd_sc_hd__a21oi_2
*CAP
1 *1589:A1 0
2 *1479:A1 9.51766e-05
3 *1476:A1 0
4 *1477:A1 7.64488e-05
5 *1467:Y 0
6 *194:30 0.000135192
7 *194:23 0.000199776
8 *194:4 0.00023621
9 *1477:A1 *1476:A2 2.16833e-05
10 *1477:A1 *1511:A 7.23602e-05
11 *1477:A1 *195:12 2.34423e-05
12 *1477:A1 *263:106 1.73877e-05
13 *1479:A1 *1479:A2 5.4155e-06
14 *1479:A1 *1479:C1 0
15 *1479:A1 *1589:A2 0.000162569
16 *1479:A1 *259:102 0.00015997
17 *1479:A1 *472:54 1.26626e-05
18 *194:23 *1476:A2 0.00015639
19 *194:23 *203:10 3.7712e-05
20 *194:30 *1476:B1 4.66108e-05
21 *194:30 *1589:B1 8.51862e-05
22 *194:30 *203:10 4.99619e-05
23 *1467:A1 *194:23 4.00541e-06
24 *1478:B1 *1477:A1 7.23533e-05
*RES
1 *1467:Y *194:4 1.6 
2 *194:4 *1477:A1 7.43 
3 *194:4 *194:23 2.895 
4 *194:23 *1476:A1 1.6 
5 *194:23 *194:30 1.14 
6 *194:30 *1479:A1 8.3 
7 *194:30 *1589:A1 1.6 
*END

*D_NET *195 0.00234779
*CONN
*I *1477:A2 I *D sky130_fd_sc_hd__o2111ai_1
*I *1589:A2 I *D sky130_fd_sc_hd__o21ai_1
*I *1479:A2 I *D sky130_fd_sc_hd__o2111a_1
*I *1468:X O *D sky130_fd_sc_hd__a31o_1
*CAP
1 *1477:A2 0
2 *1589:A2 0.000125514
3 *1479:A2 1.71692e-05
4 *1468:X 0.000298423
5 *195:16 0.000383578
6 *195:12 0.000539319
7 *1479:A2 *1479:C1 4.00541e-06
8 *1589:A2 *1599:B1 1.26548e-05
9 *1589:A2 *472:54 0.00011686
10 *195:12 *1468:B1 4.19967e-05
11 *195:16 *1477:C1 1.02707e-07
12 *195:16 *1477:D1 8.72501e-05
13 *195:16 *1479:B1 4.99619e-05
14 *195:16 *1479:C1 0
15 *195:16 *201:10 8.73389e-06
16 *195:16 *201:23 7.68414e-06
17 *1467:A1 *195:12 0.000345809
18 *1477:A1 *195:12 2.34423e-05
19 *1478:B1 *195:12 7.06865e-05
20 *1478:B1 *195:16 4.66108e-05
21 *1479:A1 *1479:A2 5.4155e-06
22 *1479:A1 *1589:A2 0.000162569
*RES
1 *1468:X *195:12 10.19 
2 *195:12 *195:16 3.915 
3 *195:16 *1479:A2 1.96 
4 *195:16 *1589:A2 8.375 
5 *195:12 *1477:A2 1.6 
*END

*D_NET *196 0.000984547
*CONN
*I *1470:A1 I *D sky130_fd_sc_hd__o211ai_4
*I *1472:A1 I *D sky130_fd_sc_hd__o22ai_1
*I *1469:Y O *D sky130_fd_sc_hd__inv_2
*CAP
1 *1470:A1 0.000103984
2 *1472:A1 7.64023e-05
3 *1469:Y 3.42301e-05
4 *196:8 0.000214617
5 *1470:A1 *1474:A1 0.000107418
6 *1470:A1 *303:20 0.000285181
7 *1472:A1 *1474:A1 9.50342e-06
8 *1472:A1 *303:20 3.97211e-05
9 *196:8 *1469:A 3.00381e-05
10 *1473:A2 *1470:A1 6.27852e-05
11 *1473:A2 *1472:A1 6.57949e-06
12 *174:10 *1472:A1 7.96104e-06
13 *174:53 *1472:A1 6.12722e-06
*RES
1 *1469:Y *196:8 4.05 
2 *196:8 *1472:A1 4.77 
3 *196:8 *1470:A1 7.02 
*END

*D_NET *197 0.00329201
*CONN
*I *1591:A2 I *D sky130_fd_sc_hd__a41oi_1
*I *1592:A1 I *D sky130_fd_sc_hd__a22o_1
*I *1479:B1 I *D sky130_fd_sc_hd__o2111a_1
*I *1477:B1 I *D sky130_fd_sc_hd__o2111ai_1
*I *1470:Y O *D sky130_fd_sc_hd__o211ai_4
*CAP
1 *1591:A2 0
2 *1592:A1 0.000119243
3 *1479:B1 8.09718e-05
4 *1477:B1 0.000103634
5 *1470:Y 0.000200384
6 *197:23 0.000200215
7 *197:21 0.000177667
8 *197:6 0.000481685
9 *1477:B1 *1468:B1 8.44359e-05
10 *1477:B1 *263:106 0
11 *1479:B1 *1592:A2 3.09164e-05
12 *1479:B1 *201:23 0.000121091
13 *1479:B1 *259:102 0.000114761
14 *1479:B1 *309:10 3.95269e-05
15 *1592:A1 *1592:A2 0.000140754
16 *1592:A1 *259:102 7.32853e-05
17 *197:6 *400:34 0.000531699
18 *197:6 *400:36 0.000119246
19 *197:6 *473:32 0.000231783
20 *197:21 *1591:A1 0.000118081
21 *197:21 *1591:B1 4.66108e-05
22 *197:21 *400:34 0.000183909
23 *1442:A1 *197:6 4.21518e-05
24 *195:16 *1479:B1 4.99619e-05
*RES
1 *1470:Y *197:6 7.57 
2 *197:6 *1477:B1 7.49 
3 *197:6 *197:21 3.915 
4 *197:21 *197:23 2 
5 *197:23 *1479:B1 6.45 
6 *197:23 *1592:A1 5.805 
7 *197:21 *1591:A2 1.6 
*END

*D_NET *198 0.00100785
*CONN
*I *1472:B2 I *D sky130_fd_sc_hd__o22ai_1
*I *1471:X O *D sky130_fd_sc_hd__or2b_1
*CAP
1 *1472:B2 0.000154158
2 *1471:X 0.000154158
3 *1472:B2 *1469:A 0.000143886
4 *1472:B2 *1474:A1 7.13211e-05
5 *1472:B2 *266:119 7.4027e-05
6 *1472:B2 *361:36 0.000349592
7 *172:48 *1472:B2 2.0174e-05
8 *173:91 *1472:B2 4.05358e-05
*RES
1 *1471:X *1472:B2 12.15 
*END

*D_NET *199 0.000645233
*CONN
*I *1474:A1 I *D sky130_fd_sc_hd__o21bai_2
*I *1472:Y O *D sky130_fd_sc_hd__o22ai_1
*CAP
1 *1474:A1 0.00015213
2 *1472:Y 0.00015213
3 *1474:A1 *1469:A 0
4 *1474:A1 *361:36 3.81651e-05
5 *1470:A1 *1474:A1 0.000107418
6 *1472:A1 *1474:A1 9.50342e-06
7 *1472:B1 *1474:A1 5.11924e-05
8 *1472:B2 *1474:A1 7.13211e-05
9 *1473:A2 *1474:A1 6.33733e-05
*RES
1 *1472:Y *1474:A1 11.0925 
*END

*D_NET *200 0.010209
*CONN
*I *1521:C1 I *D sky130_fd_sc_hd__a311o_1
*I *1520:A2 I *D sky130_fd_sc_hd__o21ai_1
*I *1562:B I *D sky130_fd_sc_hd__or3b_1
*I *1577:B I *D sky130_fd_sc_hd__or3b_1
*I *1546:B1 I *D sky130_fd_sc_hd__a31o_1
*I *1474:A2 I *D sky130_fd_sc_hd__o21bai_2
*I *1473:X O *D sky130_fd_sc_hd__o21a_2
*CAP
1 *1521:C1 0.000115088
2 *1520:A2 0.000406812
3 *1562:B 0.00033691
4 *1577:B 2.54187e-05
5 *1546:B1 0.000185986
6 *1474:A2 0.00036423
7 *1473:X 2.21593e-05
8 *200:54 0.000733496
9 *200:50 0.00123279
10 *200:44 0.000613898
11 *200:25 0.000390157
12 *200:8 0.000546555
13 *1474:A2 *1474:B1_N 9.03508e-06
14 *1474:A2 *1540:A 0
15 *1474:A2 *1661:A1 2.53531e-05
16 *1474:A2 *473:8 2.11084e-05
17 *1474:A2 *473:25 5.78094e-05
18 *1520:A2 *1517:B1 6.55706e-05
19 *1520:A2 *1544:B1_N 1.80064e-05
20 *1520:A2 *1742:A 0.000222983
21 *1520:A2 *389:157 0
22 *1521:C1 *1521:A1 6.7772e-05
23 *1521:C1 *1521:B1 8.52137e-06
24 *1521:C1 *1525:A2 1.91597e-05
25 *1521:C1 *1661:A1 6.81315e-05
26 *1521:C1 *246:33 2.05056e-05
27 *1546:B1 *1546:A1 1.63138e-05
28 *1546:B1 *385:100 0.000192513
29 *1546:B1 *483:53 0.000114492
30 *1562:B *1516:D 0.000200049
31 *1562:B *1574:A2 1.80324e-05
32 *1562:B *1616:B1 1.88656e-05
33 *1562:B *242:10 0.000131729
34 *200:8 *205:18 8.41384e-05
35 *200:8 *303:115 4.71087e-05
36 *200:25 *1661:A1 0.000212263
37 *200:44 *1661:A1 6.10014e-05
38 *200:50 *1517:A1 4.41506e-05
39 *200:50 *1517:B1 2.49909e-05
40 *200:50 *244:10 8.49205e-05
41 *200:54 *1517:B1 3.02926e-05
42 *200:54 *1824:A 8.247e-05
43 *200:54 *279:55 8.35068e-05
44 *200:54 *389:10 0.000338598
45 *1432:B *1546:B1 8.74682e-06
46 *1473:A2 *1474:A2 0
47 *1520:A1 *1520:A2 1.83847e-05
48 *1521:A2 *1521:C1 0.000160186
49 *1521:A2 *200:44 5.23362e-05
50 *1525:B2 *1546:B1 0.000116158
51 *1557:B1 *1520:A2 0.000139245
52 *1562:A *1562:B 0.000612399
53 *1574:A1 *1562:B 3.1562e-06
54 *1577:A *1562:B 9.44589e-05
55 *1577:A *1577:B 9.54399e-05
56 *150:102 *1474:A2 0.000355015
57 *150:102 *200:25 0.00016422
58 *150:113 *200:25 0.000240311
59 *150:113 *200:44 6.28498e-05
60 *150:117 *200:50 2.49909e-05
61 *151:89 *200:50 6.71882e-05
62 *153:41 *1562:B 0.00015302
63 *153:41 *1577:B 9.71067e-05
64 *157:12 *1474:A2 0
65 *159:41 *200:50 5.54529e-05
66 *159:41 *200:54 0.000190542
67 *165:29 *1520:A2 0.000134938
*RES
1 *1473:X *200:8 4.395 
2 *200:8 *1474:A2 10.335 
3 *200:8 *200:25 4.95 
4 *200:25 *1546:B1 10.9675 
5 *200:25 *200:44 1.38 
6 *200:44 *200:50 9.71 
7 *200:50 *200:54 9.695 
8 *200:54 *1577:B 4.725 
9 *200:54 *1562:B 12.405 
10 *200:50 *1520:A2 12.74 
11 *200:44 *1521:C1 6.75 
*END

*D_NET *201 0.0039656
*CONN
*I *1477:C1 I *D sky130_fd_sc_hd__o2111ai_1
*I *1592:A2 I *D sky130_fd_sc_hd__a22o_1
*I *1591:A3 I *D sky130_fd_sc_hd__a41oi_1
*I *1479:C1 I *D sky130_fd_sc_hd__o2111a_1
*I *1474:Y O *D sky130_fd_sc_hd__o21bai_2
*CAP
1 *1477:C1 4.41192e-05
2 *1592:A2 0.000101573
3 *1591:A3 0
4 *1479:C1 4.85794e-05
5 *1474:Y 0.000393456
6 *201:23 0.000173253
7 *201:10 0.000466667
8 *201:6 0.000783983
9 *1477:C1 *1477:D1 3.75002e-05
10 *1592:A2 *1592:B1 0.000152364
11 *1592:A2 *1592:B2 2.41525e-05
12 *1592:A2 *259:102 7.27704e-06
13 *1592:A2 *472:24 0.000121659
14 *201:6 *1441:C 0.000125238
15 *201:6 *1471:B_N 8.49205e-05
16 *201:6 *473:25 0.00027042
17 *201:6 *482:104 8.18626e-05
18 *201:10 *1477:D1 0.000358793
19 *201:23 *1592:B1 9.50342e-06
20 *201:23 *309:10 0.000116165
21 *1478:B1 *1477:C1 5.96515e-05
22 *1478:B1 *201:6 0.000164324
23 *1479:A1 *1479:C1 0
24 *1479:A2 *1479:C1 4.00541e-06
25 *1479:B1 *1592:A2 3.09164e-05
26 *1479:B1 *201:23 0.000121091
27 *1592:A1 *1592:A2 0.000140754
28 *168:10 *201:6 2.68526e-05
29 *195:16 *1477:C1 1.02707e-07
30 *195:16 *1479:C1 0
31 *195:16 *201:10 8.73389e-06
32 *195:16 *201:23 7.68414e-06
*RES
1 *1474:Y *201:6 10.33 
2 *201:6 *201:10 4.86 
3 *201:10 *1479:C1 2.47 
4 *201:10 *201:23 3.83 
5 *201:23 *1591:A3 3.6 
6 *201:23 *1592:A2 6.885 
7 *201:6 *1477:C1 3.205 
*END

*D_NET *202 0.00134997
*CONN
*I *1476:A2 I *D sky130_fd_sc_hd__o21ai_2
*I *1475:X O *D sky130_fd_sc_hd__and3_1
*CAP
1 *1476:A2 0.000203161
2 *1475:X 0.000203161
3 *1476:A2 *1467:B1 7.79767e-06
4 *1476:A2 *1468:B1 5.31562e-05
5 *1476:A2 *203:10 4.66108e-05
6 *1476:A2 *482:38 4.21973e-05
7 *1476:A2 *482:42 0.000316067
8 *1476:A2 *482:44 0.00015817
9 *1467:A1 *1476:A2 0.000141577
10 *1477:A1 *1476:A2 2.16833e-05
11 *194:23 *1476:A2 0.00015639
*RES
1 *1475:X *1476:A2 9.89 
*END

*D_NET *203 0.00333809
*CONN
*I *1589:B1 I *D sky130_fd_sc_hd__o21ai_1
*I *1592:B2 I *D sky130_fd_sc_hd__a22o_1
*I *1591:A1 I *D sky130_fd_sc_hd__a41oi_1
*I *1477:D1 I *D sky130_fd_sc_hd__o2111ai_1
*I *1479:D1 I *D sky130_fd_sc_hd__o2111a_1
*I *1476:Y O *D sky130_fd_sc_hd__o21ai_2
*CAP
1 *1589:B1 4.54192e-05
2 *1592:B2 6.28203e-05
3 *1591:A1 0.000149684
4 *1477:D1 0.000103139
5 *1479:D1 0
6 *1476:Y 0
7 *203:32 0.000272131
8 *203:19 0.000173385
9 *203:10 9.42403e-05
10 *203:4 0.00012904
11 *1589:B1 *1476:B1 4.46754e-05
12 *1589:B1 *482:38 0.0001857
13 *1591:A1 *1593:A 1.08758e-05
14 *1591:A1 *400:34 2.8185e-05
15 *1592:B2 *1538:B1 7.43963e-05
16 *1592:B2 *1592:B1 0.000101278
17 *1592:B2 *472:24 4.77807e-05
18 *203:10 *263:106 0.00018101
19 *203:10 *309:10 0.000179728
20 *203:10 *482:38 0.000162311
21 *203:19 *263:106 4.44927e-05
22 *203:19 *309:10 5.39961e-05
23 *203:32 *1538:B1 2.42236e-05
24 *203:32 *1592:B1 4.14369e-05
25 *203:32 *263:106 0.000126679
26 *203:32 *309:10 0.00013521
27 *1476:A2 *203:10 4.66108e-05
28 *1477:C1 *1477:D1 3.75002e-05
29 *1478:B1 *1477:D1 2.10034e-05
30 *1592:A2 *1592:B2 2.41525e-05
31 *194:23 *203:10 3.7712e-05
32 *194:30 *1589:B1 8.51862e-05
33 *194:30 *203:10 4.99619e-05
34 *195:16 *1477:D1 8.72501e-05
35 *197:21 *1591:A1 0.000118081
36 *201:10 *1477:D1 0.000358793
*RES
1 *1476:Y *203:4 1.6 
2 *203:4 *203:10 5.63 
3 *203:10 *1479:D1 3.6 
4 *203:10 *203:19 0.615 
5 *203:19 *1477:D1 7.17 
6 *203:19 *203:32 2.145 
7 *203:32 *1591:A1 6.045 
8 *203:32 *1592:B2 5.685 
9 *203:4 *1589:B1 3.43 
*END

*D_NET *204 0.00186063
*CONN
*I *1478:B2 I *D sky130_fd_sc_hd__o22a_1
*I *1477:Y O *D sky130_fd_sc_hd__o2111ai_1
*CAP
1 *1478:B2 0.000587575
2 *1477:Y 0.000587575
3 *1478:B2 *1450:B2 0.000127471
4 *1478:B2 *1468:B1 0.000335277
5 *1442:A2 *1478:B2 1.7532e-05
6 *1450:A3 *1478:B2 1.93962e-05
7 *1450:B1 *1478:B2 0
8 *1478:A2 *1478:B2 0.00016032
9 *161:135 *1478:B2 2.54824e-05
*RES
1 *1477:Y *1478:B2 16.755 
*END

*D_NET *205 0.00451736
*CONN
*I *1555:A I *D sky130_fd_sc_hd__nand2_2
*I *1517:A1 I *D sky130_fd_sc_hd__a21oi_1
*I *1564:A1 I *D sky130_fd_sc_hd__a21boi_1
*I *1478:X O *D sky130_fd_sc_hd__o22a_1
*CAP
1 *1555:A 0
2 *1517:A1 0.000165661
3 *1564:A1 0.000254006
4 *1478:X 0.00062514
5 *205:24 0.000485994
6 *205:18 0.000691468
7 *1517:A1 *1517:A2 0.000204257
8 *1517:A1 *238:19 4.20762e-05
9 *1517:A1 *278:10 0
10 *1564:A1 *1564:A2 0.000155533
11 *1564:A1 *385:100 1.9468e-05
12 *205:18 *1473:A1 0.000155608
13 *205:18 *1661:A1 0.000346509
14 *205:18 *1732:A 6.77827e-05
15 *205:18 *279:6 3.75203e-05
16 *205:18 *303:115 0.000161138
17 *205:24 *238:10 9.12494e-06
18 *205:24 *238:19 0.000109275
19 *205:24 *279:6 8.64599e-05
20 *151:74 *205:18 0
21 *159:41 *1517:A1 8.65961e-05
22 *160:35 *205:18 0.00015896
23 *161:52 *205:18 0.0001192
24 *161:52 *205:24 2.21074e-05
25 *162:36 *1517:A1 4.03869e-05
26 *162:36 *205:24 0.000135528
27 *163:111 *205:18 0.000209271
28 *200:8 *205:18 8.41384e-05
29 *200:50 *1517:A1 4.41506e-05
*RES
1 *1478:X *205:18 19.37 
2 *205:18 *205:24 4.175 
3 *205:24 *1564:A1 6.81 
4 *205:24 *1517:A1 8.025 
5 *205:18 *1555:A 1.6 
*END

*D_NET *206 0.00114648
*CONN
*I *1511:A I *D sky130_fd_sc_hd__nand4_2
*I *1479:X O *D sky130_fd_sc_hd__o2111a_1
*CAP
1 *1511:A 0.000244253
2 *1479:X 0.000244253
3 *1511:A *1511:B 0.00012657
4 *1511:A *1511:C 4.43871e-06
5 *1511:A *1597:B1 0
6 *1511:A *1608:A 5.21545e-05
7 *1511:A *263:106 0.000287655
8 *1477:A1 *1511:A 7.23602e-05
9 *1478:B1 *1511:A 0.000114795
*RES
1 *1479:X *1511:A 13.8 
*END

*D_NET *207 0.00386607
*CONN
*I *1482:A I *D sky130_fd_sc_hd__nand3_1
*I *1612:A I *D sky130_fd_sc_hd__and3_1
*I *1480:Y O *D sky130_fd_sc_hd__o21ai_1
*CAP
1 *1482:A 0.000620893
2 *1612:A 0.000135662
3 *1480:Y 0.000199114
4 *207:10 0.00095567
5 *1482:A *1501:A2 8.43944e-05
6 *1482:A *1613:A 2.1742e-05
7 *1482:A *1613:B 8.34281e-06
8 *1482:A *1614:A2_N 0.000119251
9 *1482:A *1615:B1 3.1562e-06
10 *1482:A *228:6 4.87465e-06
11 *1482:A *228:39 2.6348e-06
12 *1482:A *263:43 6.63431e-05
13 *1482:A *314:29 0.000173792
14 *1482:A *468:36 0.000118176
15 *1612:A *1486:A_N 6.70478e-05
16 *1612:A *1487:A 1.22325e-05
17 *1612:A *213:8 1.19928e-05
18 *1612:A *468:53 5.28255e-05
19 *207:10 *263:43 8.0875e-05
20 *207:10 *314:29 0.000156884
21 *207:10 *339:61 8.53113e-06
22 *1480:A2 *207:10 4.99619e-05
23 *148:43 *207:10 4.47209e-05
24 *148:45 *207:10 0.000332237
25 *152:29 *207:10 0.000534709
*RES
1 *1480:Y *207:10 11.46 
2 *207:10 *1612:A 5.445 
3 *207:10 *1482:A 13.14 
*END

*D_NET *208 0.00302539
*CONN
*I *1612:B I *D sky130_fd_sc_hd__and3_1
*I *1482:B I *D sky130_fd_sc_hd__nand3_1
*I *1481:X O *D sky130_fd_sc_hd__a211o_1
*CAP
1 *1612:B 0.000203819
2 *1482:B 0.00037506
3 *1481:X 0.000328181
4 *208:14 0.00090706
5 *1482:B *1501:B1_N 2.11651e-05
6 *1482:B *349:16 0
7 *1482:B *383:48 0
8 *1482:B *481:41 0.000546846
9 *1612:B *1614:A1_N 0.000104104
10 *1612:B *222:21 6.02061e-05
11 *208:14 *228:39 0.000140114
12 *208:14 *314:29 1.92979e-05
13 *208:14 *481:41 0.000261695
14 *153:27 *1612:B 5.78448e-05
*RES
1 *1481:X *208:14 7.95923 
2 *208:14 *1482:B 5.47037 
3 *208:14 *1612:B 6.02377 
*END

*D_NET *209 0.00203617
*CONN
*I *1500:B I *D sky130_fd_sc_hd__nand2_1
*I *1487:A I *D sky130_fd_sc_hd__nand2_2
*I *1619:A1 I *D sky130_fd_sc_hd__a221o_1
*I *1482:Y O *D sky130_fd_sc_hd__nand3_1
*CAP
1 *1500:B 0
2 *1487:A 0.000154749
3 *1619:A1 0.000151723
4 *1482:Y 0.000142009
5 *209:18 0.000471075
6 *209:14 0.000306612
7 *1487:A *1487:B 2.49909e-05
8 *1487:A *1500:A 5.83121e-06
9 *1487:A *213:8 2.9828e-05
10 *1619:A1 *1619:A2 0.000300957
11 *1619:A1 *1620:B2 0.000116158
12 *1619:A1 *1621:B1 3.33408e-05
13 *1619:A1 *254:48 0
14 *1619:A1 *254:63 2.96556e-06
15 *1619:A1 *468:36 9.05036e-05
16 *209:14 *1501:B1_N 0.000119561
17 *209:18 *1500:A 4.6075e-05
18 *209:18 *1501:B1_N 3.55992e-06
19 *1612:A *1487:A 1.22325e-05
20 *173:30 *209:14 2.4002e-05
*RES
1 *1482:Y *209:14 8.48 
2 *209:14 *209:18 2.1 
3 *209:18 *1619:A1 9.725 
4 *209:18 *1487:A 3.7 
5 *209:14 *1500:B 1.6 
*END

*D_NET *210 0.00163825
*CONN
*I *1485:B1 I *D sky130_fd_sc_hd__a211o_1
*I *1496:A2 I *D sky130_fd_sc_hd__a211o_1
*I *1484:B1 I *D sky130_fd_sc_hd__o21ai_1
*I *1483:Y O *D sky130_fd_sc_hd__inv_2
*CAP
1 *1485:B1 0
2 *1496:A2 9.60701e-05
3 *1484:B1 0.000182163
4 *1483:Y 0.000196831
5 *210:10 0.000278233
6 *210:8 0.000196831
7 *210:8 *1428:B 3.57349e-05
8 *210:8 *478:57 4.66108e-05
9 *210:8 *481:41 8.28018e-06
10 *1485:A1 *1484:B1 4.28112e-06
11 *1485:A1 *1496:A2 8.561e-05
12 *1485:A2 *1484:B1 6.54361e-06
13 *1485:A2 *210:8 9.42919e-06
14 *150:56 *210:8 7.93325e-05
15 *151:10 *210:8 1.33285e-05
16 *151:26 *210:8 2.69153e-05
17 *152:12 *1484:B1 1.11973e-05
18 *166:36 *1484:B1 0.000164111
19 *166:36 *1496:A2 9.12494e-06
20 *166:47 *1496:A2 0.000187622
*RES
1 *1483:Y *210:8 4.825 
2 *210:8 *210:10 2 
3 *210:10 *1484:B1 6.54 
4 *210:10 *1496:A2 6 
5 *210:8 *1485:B1 1.6 
*END

*D_NET *211 0.00139906
*CONN
*I *1486:B I *D sky130_fd_sc_hd__nand3b_1
*I *1484:Y O *D sky130_fd_sc_hd__o21ai_1
*CAP
1 *1486:B 0.000351671
2 *1484:Y 0.000351671
3 *1486:B *1486:C 0.000233557
4 *1486:B *1658:A1 0.00013375
5 *1486:B *213:8 8.64421e-05
6 *1486:B *481:41 4.49875e-05
7 *1485:A2 *1486:B 2.79232e-05
8 *148:41 *1486:B 7.01132e-05
9 *148:43 *1486:B 9.22206e-05
10 *148:45 *1486:B 6.72833e-06
*RES
1 *1484:Y *1486:B 13.89 
*END

*D_NET *212 0.000606588
*CONN
*I *1486:C I *D sky130_fd_sc_hd__nand3b_1
*I *1485:X O *D sky130_fd_sc_hd__a211o_1
*CAP
1 *1486:C 0.000159833
2 *1485:X 0.000159833
3 *1486:C *1486:A_N 3.12916e-05
4 *1486:C *213:8 2.20725e-05
5 *1486:B *1486:C 0.000233557
*RES
1 *1485:X *1486:C 6.08 
*END

*D_NET *213 0.00237661
*CONN
*I *1487:B I *D sky130_fd_sc_hd__nand2_2
*I *1619:A2 I *D sky130_fd_sc_hd__a221o_1
*I *1486:Y O *D sky130_fd_sc_hd__nand3b_1
*CAP
1 *1487:B 1.309e-05
2 *1619:A2 0.000132212
3 *1486:Y 0.000340628
4 *213:8 0.00048593
5 *1619:A2 *1495:A2 1.85235e-05
6 *1619:A2 *1618:B1 0.000153338
7 *1619:A2 *1619:B1 2.87433e-05
8 *1619:A2 *468:36 2.3228e-05
9 *213:8 *1486:A_N 0.000194036
10 *213:8 *1500:A 3.12916e-05
11 *213:8 *1614:A1_N 0.000265772
12 *213:8 *214:8 2.49909e-05
13 *213:8 *468:53 2.8323e-05
14 *1486:B *213:8 8.64421e-05
15 *1486:C *213:8 2.20725e-05
16 *1487:A *1487:B 2.49909e-05
17 *1487:A *213:8 2.9828e-05
18 *1612:A *213:8 1.19928e-05
19 *1619:A1 *1619:A2 0.000300957
20 *149:43 *1619:A2 0.000160218
*RES
1 *1486:Y *213:8 9.31 
2 *213:8 *1619:A2 10.0625 
3 *213:8 *1487:B 2.05 
*END

*D_NET *214 0.00182765
*CONN
*I *1613:A I *D sky130_fd_sc_hd__nor2_1
*I *1501:A1 I *D sky130_fd_sc_hd__o21bai_4
*I *1618:B1 I *D sky130_fd_sc_hd__o22a_1
*I *1487:Y O *D sky130_fd_sc_hd__nand2_2
*CAP
1 *1613:A 9.98296e-05
2 *1501:A1 0
3 *1618:B1 7.5852e-05
4 *1487:Y 3.98087e-05
5 *214:23 0.000190975
6 *214:8 0.000206807
7 *1613:A *1501:A2 2.55744e-05
8 *1613:A *1613:B 0.000154986
9 *1613:A *228:39 0.000267554
10 *1618:B1 *1500:A 3.11107e-05
11 *1618:B1 *468:36 4.59022e-06
12 *214:23 *1500:A 6.49128e-05
13 *214:23 *1501:A2 8.23457e-05
14 *214:23 *228:39 3.83194e-05
15 *1482:A *1613:A 2.1742e-05
16 *1619:A2 *1618:B1 0.000153338
17 *149:43 *1618:B1 0.000215837
18 *149:43 *214:23 0.000129082
19 *213:8 *214:8 2.49909e-05
*RES
1 *1487:Y *214:8 4.05 
2 *214:8 *1618:B1 6.255 
3 *214:8 *214:23 4.43 
4 *214:23 *1501:A1 1.6 
5 *214:23 *1613:A 4.84 
*END

*D_NET *215 0.00113738
*CONN
*I *1492:A I *D sky130_fd_sc_hd__nand3_1
*I *1494:B1 I *D sky130_fd_sc_hd__a21oi_1
*I *1488:Y O *D sky130_fd_sc_hd__inv_2
*CAP
1 *1492:A 0.000220876
2 *1494:B1 0
3 *1488:Y 5.54754e-05
4 *215:6 0.000276351
5 *1492:A *1494:A1 0.000321493
6 *1492:A *1494:A2 4.82863e-05
7 *1492:A *218:8 0.000194271
8 *1492:A *221:10 1.03323e-05
9 *1492:A *314:29 6.23541e-06
10 *215:6 *221:10 4.05674e-06
*RES
1 *1488:Y *215:6 2.395 
2 *215:6 *1494:B1 1.6 
3 *215:6 *1492:A 10.55 
*END

*D_NET *216 0.00222197
*CONN
*I *1492:B I *D sky130_fd_sc_hd__nand3_1
*I *1494:A1 I *D sky130_fd_sc_hd__a21oi_1
*I *1489:Y O *D sky130_fd_sc_hd__o211ai_1
*CAP
1 *1492:B 0
2 *1494:A1 0.000219645
3 *1489:Y 0.000198144
4 *216:6 0.000417789
5 *1494:A1 *314:29 4.70326e-05
6 *216:6 *1489:A1 0.000114433
7 *216:6 *1490:A 4.77719e-05
8 *216:6 *1491:A1 0.000198934
9 *216:6 *217:10 0.000495424
10 *216:6 *480:33 0.000161307
11 *1492:A *1494:A1 0.000321493
*RES
1 *1489:Y *216:6 8.605 
2 *216:6 *1494:A1 8.9 
3 *216:6 *1492:B 1.6 
*END

*D_NET *217 0.00394797
*CONN
*I *1491:A1 I *D sky130_fd_sc_hd__o21bai_1
*I *1623:A2 I *D sky130_fd_sc_hd__o32a_1
*I *1493:B I *D sky130_fd_sc_hd__or2_1
*I *1624:A2 I *D sky130_fd_sc_hd__o21ai_1
*I *1490:Y O *D sky130_fd_sc_hd__inv_2
*CAP
1 *1491:A1 0.000161357
2 *1623:A2 1.77753e-05
3 *1493:B 1.47239e-05
4 *1624:A2 0.000116612
5 *1490:Y 0
6 *217:16 0.000305079
7 *217:10 0.000812021
8 *217:4 0.000781859
9 *1491:A1 *477:23 0.000116158
10 *1491:A1 *478:23 0.000116158
11 *1493:B *1493:A 5.4155e-06
12 *1623:A2 *1493:A 0
13 *1624:A2 *383:48 0
14 *1624:A2 *461:14 3.09164e-05
15 *1624:A2 *461:27 8.5242e-05
16 *1624:A2 *461:33 5.83121e-06
17 *1624:A2 *480:33 8.73389e-06
18 *217:10 *1492:C 8.23457e-05
19 *217:10 *1622:A_N 4.82863e-05
20 *217:10 *1624:B1 3.00381e-05
21 *217:10 *219:6 1.41165e-05
22 *217:10 *335:6 0.000114465
23 *217:10 *480:33 2.59934e-06
24 *217:16 *1493:A 9.53428e-06
25 *217:16 *1623:A1 0.000173179
26 *217:16 *1624:B1 2.30292e-05
27 *217:16 *1625:B1 8.40213e-05
28 *217:16 *461:33 4.41506e-05
29 *1623:B1 *217:10 4.99619e-05
30 *216:6 *1491:A1 0.000198934
31 *216:6 *217:10 0.000495424
*RES
1 *1490:Y *217:4 1.6 
2 *217:4 *217:10 9.54 
3 *217:10 *217:16 3.33 
4 *217:16 *1624:A2 7.43 
5 *217:16 *1493:B 1.96 
6 *217:10 *1623:A2 1.96 
7 *217:4 *1491:A1 8.81 
*END

*D_NET *218 0.0017565
*CONN
*I *1492:C I *D sky130_fd_sc_hd__nand3_1
*I *1494:A2 I *D sky130_fd_sc_hd__a21oi_1
*I *1491:Y O *D sky130_fd_sc_hd__o21bai_1
*CAP
1 *1492:C 9.17973e-05
2 *1494:A2 1.91908e-05
3 *1491:Y 0.000428115
4 *218:8 0.000539103
5 *1492:C *219:6 1.91597e-05
6 *1492:C *221:10 6.14689e-05
7 *1492:C *221:23 2.97004e-06
8 *1492:C *335:6 4.66108e-05
9 *1492:C *339:61 0.000155928
10 *218:8 *477:23 3.45679e-05
11 *1491:A2 *218:8 3.26889e-05
12 *1492:A *1494:A2 4.82863e-05
13 *1492:A *218:8 0.000194271
14 *217:10 *1492:C 8.23457e-05
*RES
1 *1491:Y *218:8 8.875 
2 *218:8 *1494:A2 2.05 
3 *218:8 *1492:C 8.285 
*END

*D_NET *219 0.00206688
*CONN
*I *1622:B I *D sky130_fd_sc_hd__and2b_1
*I *1619:B1 I *D sky130_fd_sc_hd__a221o_1
*I *1495:A1 I *D sky130_fd_sc_hd__a21oi_2
*I *1492:Y O *D sky130_fd_sc_hd__nand3_1
*CAP
1 *1622:B 0
2 *1619:B1 0.000112232
3 *1495:A1 0
4 *1492:Y 3.32152e-05
5 *219:16 0.000280999
6 *219:6 0.000201983
7 *1619:B1 *1495:A2 0.000115173
8 *1619:B1 *1495:B1 0
9 *1619:B1 *1619:B2 6.82819e-06
10 *1619:B1 *1619:C1 0.00026543
11 *219:6 *335:6 3.66286e-05
12 *219:6 *480:33 0.000119246
13 *219:16 *1619:C1 1.91597e-05
14 *219:16 *221:23 0.0003051
15 *219:16 *222:8 5.10477e-05
16 *219:16 *335:6 0.000162311
17 *219:16 *480:33 0.00015896
18 *1492:C *219:6 1.91597e-05
19 *1619:A2 *1619:B1 2.87433e-05
20 *1623:B1 *219:16 0.000136552
21 *217:10 *219:6 1.41165e-05
*RES
1 *1492:Y *219:6 2.74 
2 *219:6 *219:16 9.61 
3 *219:16 *1495:A1 1.6 
4 *219:16 *1619:B1 4.84 
5 *219:6 *1622:B 1.6 
*END

*D_NET *220 0.00190248
*CONN
*I *1495:A2 I *D sky130_fd_sc_hd__a21oi_2
*I *1619:B2 I *D sky130_fd_sc_hd__a221o_1
*I *1645:A2_N I *D sky130_fd_sc_hd__a2bb2o_1
*I *1493:X O *D sky130_fd_sc_hd__or2_1
*CAP
1 *1495:A2 0.000246942
2 *1619:B2 2.27164e-05
3 *1645:A2_N 0.000254908
4 *1493:X 8.12791e-05
5 *220:10 0.000605845
6 *1495:A2 *1619:C1 9.49335e-06
7 *1619:B2 *1619:C1 1.47407e-05
8 *1645:A2_N *1619:C1 3.42018e-05
9 *220:10 *1621:B1 0.00024283
10 *220:10 *1625:A3 7.23533e-05
11 *220:10 *254:48 0.000176647
12 *1619:A2 *1495:A2 1.85235e-05
13 *1619:B1 *1495:A2 0.000115173
14 *1619:B1 *1619:B2 6.82819e-06
*RES
1 *1493:X *220:10 8.51 
2 *220:10 *1645:A2_N 4.6 
3 *220:10 *1619:B2 2.3575 
4 *220:10 *1495:A2 5.32 
*END

*D_NET *221 0.0028377
*CONN
*I *1495:B1 I *D sky130_fd_sc_hd__a21oi_2
*I *1619:C1 I *D sky130_fd_sc_hd__a221o_1
*I *1622:A_N I *D sky130_fd_sc_hd__and2b_1
*I *1494:Y O *D sky130_fd_sc_hd__a21oi_1
*CAP
1 *1495:B1 5.79152e-05
2 *1619:C1 0.000259127
3 *1622:A_N 9.73191e-06
4 *1494:Y 0.000188494
5 *221:23 0.000468246
6 *221:10 0.00034943
7 *1619:C1 *1620:B2 0.000119756
8 *1622:A_N *335:6 4.82863e-05
9 *221:10 *1621:B1 0
10 *221:10 *1625:B1 0
11 *221:10 *339:61 0
12 *221:23 *222:8 2.09708e-05
13 *221:23 *339:61 3.96713e-05
14 *1492:A *221:10 1.03323e-05
15 *1492:C *221:10 6.14689e-05
16 *1492:C *221:23 2.97004e-06
17 *1495:A2 *1619:C1 9.49335e-06
18 *1537:A *1495:B1 8.23457e-05
19 *1537:A *1619:C1 3.66286e-05
20 *1619:B1 *1495:B1 0
21 *1619:B1 *1619:C1 0.00026543
22 *1619:B2 *1619:C1 1.47407e-05
23 *1623:B1 *221:10 2.97004e-06
24 *1623:B1 *221:23 1.23331e-05
25 *1623:B2 *1619:C1 0.000119762
26 *1645:A2_N *1619:C1 3.42018e-05
27 *153:27 *221:23 0.000246793
28 *215:6 *221:10 4.05674e-06
29 *217:10 *1622:A_N 4.82863e-05
30 *219:16 *1619:C1 1.91597e-05
31 *219:16 *221:23 0.0003051
*RES
1 *1494:Y *221:10 6.705 
2 *221:10 *1622:A_N 4.05 
3 *221:10 *221:23 6.695 
4 *221:23 *1619:C1 7.49125 
5 *221:23 *1495:B1 2.755 
*END

*D_NET *222 0.0023401
*CONN
*I *1613:B I *D sky130_fd_sc_hd__nor2_1
*I *1501:A2 I *D sky130_fd_sc_hd__o21bai_4
*I *1618:B2 I *D sky130_fd_sc_hd__o22a_1
*I *1495:Y O *D sky130_fd_sc_hd__a21oi_2
*CAP
1 *1613:B 4.73581e-05
2 *1501:A2 7.62967e-05
3 *1618:B2 2.19846e-05
4 *1495:Y 0.000101899
5 *222:21 0.000299903
6 *222:8 0.000300132
7 *1501:A2 *1614:A2_N 9.03508e-06
8 *1501:A2 *228:6 3.09774e-05
9 *1501:A2 *228:39 1.42598e-05
10 *1613:B *1614:A2_N 6.67061e-05
11 *1618:B2 *339:61 4.80285e-05
12 *1618:B2 *468:53 8.41384e-05
13 *222:21 *1614:A1_N 0.000130378
14 *222:21 *1614:A2_N 2.73058e-05
15 *1482:A *1501:A2 8.43944e-05
16 *1482:A *1613:B 8.34281e-06
17 *1612:B *222:21 6.02061e-05
18 *1613:A *1501:A2 2.55744e-05
19 *1613:A *1613:B 0.000154986
20 *1623:B1 *222:8 0.000173305
21 *148:51 *222:8 0.000134866
22 *148:51 *222:21 8.33066e-06
23 *149:43 *222:8 3.35575e-05
24 *149:43 *222:21 0.000107383
25 *153:27 *222:8 4.24292e-06
26 *153:27 *222:21 0.000132139
27 *214:23 *1501:A2 8.23457e-05
28 *219:16 *222:8 5.10477e-05
29 *221:23 *222:8 2.09708e-05
*RES
1 *1495:Y *222:8 6.51 
2 *222:8 *1618:B2 4.395 
3 *222:8 *222:21 6.185 
4 *222:21 *1501:A2 3.805 
5 *222:21 *1613:B 3.085 
*END

*D_NET *223 0.00282282
*CONN
*I *1502:A2 I *D sky130_fd_sc_hd__a21o_2
*I *1499:A I *D sky130_fd_sc_hd__nand3_1
*I *1611:A2 I *D sky130_fd_sc_hd__a21oi_1
*I *1496:X O *D sky130_fd_sc_hd__a211o_1
*CAP
1 *1502:A2 0
2 *1499:A 0.000435162
3 *1611:A2 4.99416e-05
4 *1496:X 0.000234464
5 *223:18 0.000536434
6 *223:14 0.000285795
7 *1499:A *1499:B 2.30908e-05
8 *1499:A *1658:A1 0
9 *1499:A *229:10 7.96104e-06
10 *1499:A *229:16 1.76792e-05
11 *1499:A *314:29 0.000133528
12 *1499:A *469:70 9.21178e-05
13 *1611:A2 *1502:B1 4.04987e-06
14 *1611:A2 *1611:B1 1.81745e-05
15 *1611:A2 *229:10 5.43973e-05
16 *1611:A2 *229:16 3.80056e-05
17 *1611:A2 *469:60 1.78548e-05
18 *223:14 *1658:A1 0.000194907
19 *223:14 *225:14 0.000121019
20 *223:14 *229:16 0.000109416
21 *223:18 *1502:B1 4.87465e-06
22 *223:18 *225:14 4.89295e-05
23 *223:18 *229:16 0.000199418
24 *223:18 *469:47 4.40028e-05
25 *223:18 *469:60 2.203e-05
26 *1481:A1 *223:14 1.33285e-05
27 *1481:A2 *223:14 9.88165e-05
28 *1485:A1 *223:14 6.54361e-06
29 *1497:B1 *223:14 0
30 *151:26 *223:14 1.08758e-05
*RES
1 *1496:X *223:14 10.28 
2 *223:14 *223:18 2.19 
3 *223:18 *1611:A2 3.3925 
4 *223:18 *1499:A 15.39 
5 *223:14 *1502:A2 1.6 
*END

*D_NET *224 0.00163978
*CONN
*I *1498:A I *D sky130_fd_sc_hd__nand2_1
*I *1497:Y O *D sky130_fd_sc_hd__o31ai_1
*CAP
1 *1498:A 0.000394736
2 *1497:Y 0.000394736
3 *1498:A *1481:B1 0.000130387
4 *1498:A *254:33 2.69272e-05
5 *1498:A *469:45 6.21059e-05
6 *1498:A *478:53 0.000176281
7 *1498:A *484:10 0
8 *1496:C1 *1498:A 0.000276462
9 *1497:B1 *1498:A 0.000178143
*RES
1 *1497:Y *1498:A 15.75 
*END

*D_NET *225 0.0034246
*CONN
*I *1502:A1 I *D sky130_fd_sc_hd__a21o_2
*I *1611:A1 I *D sky130_fd_sc_hd__a21oi_1
*I *1499:C I *D sky130_fd_sc_hd__nand3_1
*I *1498:Y O *D sky130_fd_sc_hd__nand2_1
*CAP
1 *1502:A1 0
2 *1611:A1 1.14268e-05
3 *1499:C 0.000294577
4 *1498:Y 0.00016893
5 *225:26 0.000643783
6 *225:14 0.000506709
7 *1499:C *1614:A1_N 2.05641e-05
8 *1499:C *1614:A2_N 1.7635e-05
9 *1499:C *1614:B1 0.00018735
10 *1499:C *226:14 0.00011104
11 *1499:C *481:41 0.000182222
12 *1611:A1 *229:16 4.55864e-06
13 *1611:A1 *314:29 9.58678e-06
14 *225:14 *229:16 0.000245591
15 *225:14 *469:45 3.57511e-05
16 *225:14 *469:47 0.000574761
17 *225:26 *1614:B1 4.85102e-05
18 *225:26 *1658:A1 4.61701e-06
19 *225:26 *481:41 9.48343e-05
20 *1497:B1 *225:14 9.22017e-05
21 *223:14 *225:14 0.000121019
22 *223:18 *225:14 4.89295e-05
*RES
1 *1498:Y *225:14 12.365 
2 *225:14 *225:26 3.39877 
3 *225:26 *1499:C 6.3949 
4 *225:26 *1611:A1 4.3325 
5 *225:14 *1502:A1 1.6 
*END

*D_NET *226 0.00174674
*CONN
*I *1614:B2 I *D sky130_fd_sc_hd__a2bb2o_1
*I *1500:A I *D sky130_fd_sc_hd__nand2_1
*I *1499:Y O *D sky130_fd_sc_hd__nand3_1
*CAP
1 *1614:B2 0
2 *1500:A 0.000306063
3 *1499:Y 0.000127244
4 *226:14 0.000433307
5 *1500:A *1614:A1_N 2.0514e-05
6 *1500:A *1614:A2_N 0.000121541
7 *1500:A *1615:B1 5.14528e-05
8 *1500:A *254:63 9.88172e-06
9 *1500:A *468:36 0.000177873
10 *226:14 *1611:B1 0
11 *226:14 *1614:A2_N 8.49205e-05
12 *226:14 *1615:B2 6.46793e-05
13 *1487:A *1500:A 5.83121e-06
14 *1499:C *226:14 0.00011104
15 *1618:B1 *1500:A 3.11107e-05
16 *149:43 *1500:A 5.89976e-05
17 *209:18 *1500:A 4.6075e-05
18 *213:8 *1500:A 3.12916e-05
19 *214:23 *1500:A 6.49128e-05
*RES
1 *1499:Y *226:14 4.615 
2 *226:14 *1500:A 11.915 
3 *226:14 *1614:B2 1.6 
*END

*D_NET *227 0.000585268
*CONN
*I *1501:B1_N I *D sky130_fd_sc_hd__o21bai_4
*I *1500:Y O *D sky130_fd_sc_hd__nand2_1
*CAP
1 *1501:B1_N 0.000154403
2 *1500:Y 0.000154403
3 *1482:B *1501:B1_N 2.11651e-05
4 *173:30 *1501:B1_N 0.000132176
5 *209:14 *1501:B1_N 0.000119561
6 *209:18 *1501:B1_N 3.55992e-06
*RES
1 *1500:Y *1501:B1_N 9.975 
*END

*D_NET *228 0.0114737
*CONN
*I *1607:A1 I *D sky130_fd_sc_hd__a21o_1
*I *1511:B I *D sky130_fd_sc_hd__nand4_2
*I *1588:A I *D sky130_fd_sc_hd__nand3_1
*I *1601:C1 I *D sky130_fd_sc_hd__o2111ai_2
*I *1615:B1 I *D sky130_fd_sc_hd__o221ai_1
*I *1501:Y O *D sky130_fd_sc_hd__o21bai_4
*CAP
1 *1607:A1 0.00012679
2 *1511:B 0.000159389
3 *1588:A 2.24265e-05
4 *1601:C1 2.11135e-05
5 *1615:B1 0.000195199
6 *1501:Y 3.59415e-05
7 *228:56 0.000292248
8 *228:43 0.000255743
9 *228:39 0.0025723
10 *228:6 0.00255245
11 *1511:B *1511:C 0
12 *1511:B *1511:D 6.77001e-05
13 *1511:B *1599:A1_N 9.72742e-06
14 *1511:B *263:100 0.000217324
15 *1511:B *317:18 0.000202552
16 *1588:A *1588:B 5.58436e-05
17 *1588:A *1597:A1 0
18 *1607:A1 *1608:C 0.00015856
19 *1615:B1 *1615:B2 7.23602e-05
20 *1615:B1 *254:63 0.000319635
21 *1615:B1 *468:36 4.89395e-05
22 *228:6 *468:36 3.09774e-05
23 *228:39 *1481:B1 0.000243722
24 *228:39 *1496:B1 1.08758e-05
25 *228:39 *492:29 0.000141759
26 *228:43 *1601:D1 4.77807e-05
27 *228:43 *1608:C 0.000104626
28 *228:43 *318:12 1.19928e-05
29 *228:43 *492:29 0.000374917
30 *228:56 *263:100 0.000287107
31 *228:56 *317:18 0.000285434
32 *228:56 *492:29 8.35118e-05
33 *1481:A1 *228:39 2.52029e-05
34 *1481:A2 *228:39 1.06624e-05
35 *1482:A *1615:B1 3.1562e-06
36 *1482:A *228:6 4.87465e-06
37 *1482:A *228:39 2.6348e-06
38 *1497:B1 *228:39 5.69216e-05
39 *1500:A *1615:B1 5.14528e-05
40 *1501:A2 *228:6 3.09774e-05
41 *1501:A2 *228:39 1.42598e-05
42 *1511:A *1511:B 0.00012657
43 *1613:A *228:39 0.000267554
44 *1696:A1 *228:39 0.000945435
45 *1821:A *228:39 0
46 *149:43 *1615:B1 3.04982e-05
47 *150:48 *228:39 0.000498885
48 *151:26 *228:39 0.000100505
49 *166:47 *228:39 8.69059e-05
50 *173:162 *228:39 2.98383e-05
51 *208:14 *228:39 0.000140114
52 *214:23 *228:39 3.83194e-05
*RES
1 *1501:Y *228:6 2.47 
2 *228:6 *1615:B1 10.07 
3 *228:6 *228:39 25.2371 
4 *228:39 *228:43 4.08 
5 *228:43 *1601:C1 1.96 
6 *228:43 *228:56 6.215 
7 *228:56 *1588:A 4.215 
8 *228:56 *1511:B 8.205 
9 *228:39 *1607:A1 3.43 
*END

*D_NET *229 0.00834406
*CONN
*I *1614:B1 I *D sky130_fd_sc_hd__a2bb2o_1
*I *1588:B I *D sky130_fd_sc_hd__nand3_1
*I *1511:C I *D sky130_fd_sc_hd__nand4_2
*I *1601:D1 I *D sky130_fd_sc_hd__o2111ai_2
*I *1607:A2 I *D sky130_fd_sc_hd__a21o_1
*I *1502:X O *D sky130_fd_sc_hd__a21o_2
*CAP
1 *1614:B1 0.000356154
2 *1588:B 0.000162006
3 *1511:C 0.000118393
4 *1601:D1 1.83022e-05
5 *1607:A2 0
6 *1502:X 3.75809e-05
7 *229:22 0.000120053
8 *229:18 0.000220143
9 *229:16 0.00219914
10 *229:10 0.00243087
11 *1511:C *1511:D 0.000113738
12 *1511:C *1597:B1 0
13 *1511:C *1608:A 0.000244453
14 *1511:C *237:12 1.71013e-05
15 *1511:C *263:100 0
16 *1601:D1 *1608:C 1.14169e-05
17 *1601:D1 *318:12 5.83121e-06
18 *1614:B1 *1614:A1_N 8.53113e-06
19 *229:10 *469:60 8.41307e-05
20 *229:16 *1448:B1 6.49509e-05
21 *229:16 *1658:A1 0
22 *229:16 *314:29 0
23 *229:16 *469:47 4.24744e-05
24 *229:22 *1608:A 0.00030633
25 *229:22 *237:12 0.00016672
26 *1447:B *229:16 4.16445e-05
27 *1447:C *229:16 0.000348802
28 *1448:A1 *229:16 0.00016031
29 *1448:A2 *229:16 2.97272e-05
30 *1499:A *229:10 7.96104e-06
31 *1499:A *229:16 1.76792e-05
32 *1499:C *1614:B1 0.00018735
33 *1511:A *1511:C 4.43871e-06
34 *1511:B *1511:C 0
35 *1588:A *1588:B 5.58436e-05
36 *1611:A1 *229:16 4.55864e-06
37 *1611:A2 *229:10 5.43973e-05
38 *1611:A2 *229:16 3.80056e-05
39 *149:43 *1614:B1 4.22316e-06
40 *153:27 *1614:B1 1.00941e-05
41 *223:14 *229:16 0.000109416
42 *223:18 *229:16 0.000199418
43 *225:14 *229:16 0.000245591
44 *225:26 *1614:B1 4.85102e-05
45 *228:43 *1601:D1 4.77807e-05
*RES
1 *1502:X *229:10 4.6275 
2 *229:10 *229:16 26.9075 
3 *229:16 *229:18 2 
4 *229:18 *229:22 5.675 
5 *229:22 *1607:A2 1.6 
6 *229:22 *1601:D1 2.05 
7 *229:18 *1511:C 6.96 
8 *229:16 *1588:B 3.7 
9 *229:10 *1614:B1 5.51143 
*END

*D_NET *230 0.00424673
*CONN
*I *1601:A2 I *D sky130_fd_sc_hd__o2111ai_2
*I *1510:A1 I *D sky130_fd_sc_hd__o2111a_1
*I *1606:A1 I *D sky130_fd_sc_hd__o22a_1
*I *1503:Y O *D sky130_fd_sc_hd__a21oi_2
*CAP
1 *1601:A2 0.000580828
2 *1510:A1 6.14724e-05
3 *1606:A1 2.08101e-05
4 *1503:Y 0.0002582
5 *230:23 0.00090573
6 *230:6 0.00054244
7 *1510:A1 *1604:C1 4.99619e-05
8 *1601:A2 *1604:A1 0.000158066
9 *1601:A2 *1604:A2 0.000114643
10 *1601:A2 *1604:B1 2.75145e-05
11 *1601:A2 *1604:B2 1.71013e-05
12 *1601:A2 *318:12 0
13 *1601:A2 *385:102 4.91461e-06
14 *1601:A2 *388:139 0
15 *1601:A2 *470:26 0
16 *1601:A2 *492:29 0.000128166
17 *230:6 *1503:B1 4.89295e-05
18 *230:6 *1607:B1 0.000267152
19 *230:6 *236:10 4.99619e-05
20 *230:23 *1509:B 4.66108e-05
21 *230:23 *1604:A1 0.000273008
22 *230:23 *236:10 8.51862e-05
23 *1465:A1 *1606:A1 0
24 *1465:A1 *230:6 8.82557e-05
25 *1609:A2 *230:6 0.00012653
26 *185:18 *230:6 0.000244925
27 *193:16 *230:23 0.000146319
*RES
1 *1503:Y *230:6 7.915 
2 *230:6 *1606:A1 1.96 
3 *230:6 *230:23 9.7 
4 *230:23 *1510:A1 2.755 
5 *230:23 *1601:A2 14.18 
*END

*D_NET *231 0.00390144
*CONN
*I *1510:A2 I *D sky130_fd_sc_hd__o2111a_1
*I *1601:A1 I *D sky130_fd_sc_hd__o2111ai_2
*I *1606:A2 I *D sky130_fd_sc_hd__o22a_1
*I *1504:X O *D sky130_fd_sc_hd__a31o_1
*CAP
1 *1510:A2 6.93672e-05
2 *1601:A1 0.000204782
3 *1606:A2 0.000204443
4 *1504:X 0.000319551
5 *231:31 0.000532704
6 *231:12 0.000782549
7 *1510:A2 *1510:B1 1.08758e-05
8 *1510:A2 *235:25 3.1562e-06
9 *1601:A1 *1601:B1 3.92272e-05
10 *1601:A1 *234:19 5.37871e-06
11 *1601:A1 *235:25 9.11878e-05
12 *1601:A1 *236:25 3.35246e-05
13 *1606:A2 *1608:C 2.46007e-05
14 *1606:A2 *1609:B1 0.000136182
15 *1606:A2 *317:18 0.000201393
16 *231:12 *1603:A4 3.66286e-05
17 *231:12 *1608:B 0.000119285
18 *231:12 *263:92 0.000334995
19 *231:31 *1510:B1 0.000158965
20 *231:31 *1602:A2 8.34281e-06
21 *231:31 *1608:C 4.24292e-06
22 *231:31 *237:12 0.000120655
23 *231:31 *317:18 0.000114492
24 *231:31 *318:20 9.54469e-05
25 *1465:A1 *1606:A2 0.000128012
26 *185:18 *1606:A2 7.85722e-05
27 *193:16 *1601:A1 4.28769e-05
*RES
1 *1504:X *231:12 8.91 
2 *231:12 *1606:A2 8.535 
3 *231:12 *231:31 6.245 
4 *231:31 *1601:A1 9.26 
5 *231:31 *1510:A2 2.395 
*END

*D_NET *232 0.00124554
*CONN
*I *1507:A I *D sky130_fd_sc_hd__nand3_2
*I *1505:X O *D sky130_fd_sc_hd__a21o_1
*CAP
1 *1507:A 0.00036404
2 *1505:X 0.00036404
3 *1453:A2 *1507:A 2.69267e-05
4 *1461:C *1507:A 4.99619e-05
5 *1504:A1 *1507:A 6.88421e-05
6 *1505:A1 *1507:A 2.68526e-05
7 *1505:A2 *1507:A 2.68464e-05
8 *1505:B1 *1507:A 2.10214e-05
9 *172:68 *1507:A 0
10 *173:162 *1507:A 0.000297006
*RES
1 *1505:X *1507:A 13.395 
*END

*D_NET *233 0.00145271
*CONN
*I *1507:C I *D sky130_fd_sc_hd__nand3_2
*I *1506:X O *D sky130_fd_sc_hd__a211o_1
*CAP
1 *1507:C 0.00031741
2 *1506:X 0.00031741
3 *1507:C *1424:A 1.19928e-05
4 *1507:C *1507:B 5.19229e-05
5 *1507:C *234:6 0.000108883
6 *1507:C *237:12 0
7 *1507:C *469:45 0.000461914
8 *1506:A1 *1507:C 4.66108e-05
9 *1506:A2 *1507:C 8.49205e-05
10 *148:35 *1507:C 5.16479e-05
*RES
1 *1506:X *1507:C 11.255 
*END

*D_NET *234 0.00306764
*CONN
*I *1601:B1 I *D sky130_fd_sc_hd__o2111ai_2
*I *1510:B1 I *D sky130_fd_sc_hd__o2111a_1
*I *1603:A3 I *D sky130_fd_sc_hd__a41o_1
*I *1602:B1 I *D sky130_fd_sc_hd__a22oi_1
*I *1507:Y O *D sky130_fd_sc_hd__nand3_2
*CAP
1 *1601:B1 4.64726e-05
2 *1510:B1 8.26789e-05
3 *1603:A3 0.000126761
4 *1602:B1 0
5 *1507:Y 0.000277919
6 *234:19 0.00026124
7 *234:17 0.000260499
8 *234:6 0.000440146
9 *1510:B1 *1602:A1 1.17409e-05
10 *1510:B1 *1602:A2 4.80285e-05
11 *1510:B1 *235:25 1.03323e-05
12 *1601:B1 *263:100 0.000104623
13 *1603:A3 *1603:A2 4.1527e-05
14 *1603:A3 *1603:A4 0.000270524
15 *1603:A3 *1603:B1 0.000124007
16 *1603:A3 *236:25 7.03431e-05
17 *1603:A3 *263:100 0.000135912
18 *234:6 *1507:B 4.88572e-05
19 *234:6 *1602:B2 4.66108e-05
20 *234:6 *1604:B1 5.21706e-05
21 *234:6 *237:12 4.9253e-06
22 *234:6 *469:45 9.27255e-06
23 *234:17 *1602:A1 0.000157394
24 *234:17 *237:12 9.27255e-06
25 *234:19 *236:25 2.33395e-05
26 *234:19 *263:100 7.97104e-05
27 *1507:C *234:6 0.000108883
28 *1510:A2 *1510:B1 1.08758e-05
29 *1601:A1 *1601:B1 3.92272e-05
30 *1601:A1 *234:19 5.37871e-06
31 *231:31 *1510:B1 0.000158965
*RES
1 *1507:Y *234:6 6.19 
2 *234:6 *1602:B1 1.6 
3 *234:6 *234:17 4.19 
4 *234:17 *234:19 1.125 
5 *234:19 *1603:A3 7.755 
6 *234:19 *1510:B1 5.7 
7 *234:17 *1601:B1 4.98 
*END

*D_NET *235 0.00261357
*CONN
*I *1510:C1 I *D sky130_fd_sc_hd__o2111a_1
*I *1602:A1 I *D sky130_fd_sc_hd__a22oi_1
*I *1603:A1 I *D sky130_fd_sc_hd__a41o_1
*I *1508:Y O *D sky130_fd_sc_hd__o211ai_2
*CAP
1 *1510:C1 0
2 *1602:A1 0.000119765
3 *1603:A1 0
4 *1508:Y 0.000268759
5 *235:25 0.000352321
6 *235:8 0.000501315
7 *1602:A1 *1602:A2 0.000178892
8 *1602:A1 *237:12 1.94185e-05
9 *235:8 *1509:B 0.000187759
10 *235:8 *236:10 5.02217e-05
11 *235:8 *236:25 1.52184e-05
12 *235:8 *471:31 7.58692e-05
13 *235:25 *236:25 4.03077e-05
14 *1465:A1 *235:8 0.000337531
15 *1509:A *235:8 1.15688e-05
16 *1510:A2 *235:25 3.1562e-06
17 *1510:B1 *1602:A1 1.17409e-05
18 *1510:B1 *235:25 1.03323e-05
19 *1601:A1 *235:25 9.11878e-05
20 *1606:B2 *235:8 0
21 *193:16 *235:8 5.13597e-05
22 *193:16 *235:25 0.000129449
23 *234:17 *1602:A1 0.000157394
*RES
1 *1508:Y *235:8 10.08 
2 *235:8 *1603:A1 3.6 
3 *235:8 *235:25 6.26 
4 *235:25 *1602:A1 4.585 
5 *235:25 *1510:C1 1.6 
*END

*D_NET *236 0.00154122
*CONN
*I *1510:D1 I *D sky130_fd_sc_hd__o2111a_1
*I *1602:A2 I *D sky130_fd_sc_hd__a22oi_1
*I *1603:A2 I *D sky130_fd_sc_hd__a41o_1
*I *1509:Y O *D sky130_fd_sc_hd__nand2_1
*CAP
1 *1510:D1 0
2 *1602:A2 4.81305e-05
3 *1603:A2 8.89105e-05
4 *1509:Y 0.000142356
5 *236:25 0.000168438
6 *236:10 0.000351574
7 *1602:A2 *237:12 4.05313e-05
8 *1603:A2 *1603:B1 4.82919e-05
9 *236:10 *317:18 0
10 *236:25 *263:100 8.09021e-06
11 *236:25 *317:18 0
12 *1510:B1 *1602:A2 4.80285e-05
13 *1601:A1 *236:25 3.35246e-05
14 *1602:A1 *1602:A2 0.000178892
15 *1603:A3 *1603:A2 4.1527e-05
16 *1603:A3 *236:25 7.03431e-05
17 *230:6 *236:10 4.99619e-05
18 *230:23 *236:10 8.51862e-05
19 *231:31 *1602:A2 8.34281e-06
20 *234:19 *236:25 2.33395e-05
21 *235:8 *236:10 5.02217e-05
22 *235:8 *236:25 1.52184e-05
23 *235:25 *236:25 4.03077e-05
*RES
1 *1509:Y *236:10 5.865 
2 *236:10 *1603:A2 5.1 
3 *236:10 *236:25 4.655 
4 *236:25 *1602:A2 3.295 
5 *236:25 *1510:D1 1.6 
*END

*D_NET *237 0.002148
*CONN
*I *1511:D I *D sky130_fd_sc_hd__nand4_2
*I *1588:C I *D sky130_fd_sc_hd__nand3_1
*I *1510:X O *D sky130_fd_sc_hd__o2111a_1
*CAP
1 *1511:D 0.000216457
2 *1588:C 0
3 *1510:X 0.000305642
4 *237:12 0.000522099
5 *1511:D *1599:A1_N 0
6 *1511:D *238:10 7.00889e-06
7 *1511:D *317:18 9.428e-05
8 *237:12 *1608:A 9.12359e-06
9 *237:12 *317:18 0.000294951
10 *237:12 *318:12 0.000109845
11 *237:12 *318:20 2.8531e-05
12 *1507:C *237:12 0
13 *1511:B *1511:D 6.77001e-05
14 *1511:C *1511:D 0.000113738
15 *1511:C *237:12 1.71013e-05
16 *1602:A1 *237:12 1.94185e-05
17 *1602:A2 *237:12 4.05313e-05
18 *229:22 *237:12 0.00016672
19 *231:31 *237:12 0.000120655
20 *234:6 *237:12 4.9253e-06
21 *234:17 *237:12 9.27255e-06
*RES
1 *1510:X *237:12 11.415 
2 *237:12 *1588:C 3.6 
3 *237:12 *1511:D 8.4 
*END

*D_NET *238 0.00646765
*CONN
*I *1517:A2 I *D sky130_fd_sc_hd__a21oi_1
*I *1564:A2 I *D sky130_fd_sc_hd__a21boi_1
*I *1555:B I *D sky130_fd_sc_hd__nand2_2
*I *1511:Y O *D sky130_fd_sc_hd__nand4_2
*CAP
1 *1517:A2 6.53976e-05
2 *1564:A2 6.58435e-05
3 *1555:B 0
4 *1511:Y 0.00178221
5 *238:19 0.000204014
6 *238:10 0.00185499
7 *1517:A2 *1742:A 5.44496e-05
8 *1517:A2 *244:10 5.16418e-05
9 *1564:A2 *385:100 0.000155533
10 *238:10 *1596:A 0.000227857
11 *238:10 *1658:A1 0
12 *238:10 *1661:A3 4.11685e-05
13 *238:10 *1661:B1 1.18614e-05
14 *238:10 *266:6 1.63139e-05
15 *238:10 *266:119 8.24507e-05
16 *238:10 *278:10 0
17 *238:19 *1742:A 3.88859e-05
18 *1449:A1 *238:10 0.000108023
19 *1450:B1 *238:10 6.71744e-05
20 *1511:D *238:10 7.00889e-06
21 *1517:A1 *1517:A2 0.000204257
22 *1517:A1 *238:19 4.20762e-05
23 *1553:A *238:10 2.09144e-05
24 *1564:A1 *1564:A2 0.000155533
25 *1660:B2 *238:10 0.000149942
26 *1790:D *238:10 0.000415319
27 *1790:RESET_B *238:10 0
28 *1821:A *238:10 7.45968e-05
29 *150:8 *238:10 0.000345436
30 *162:56 *238:10 9.52576e-05
31 *162:56 *238:19 1.10951e-05
32 *173:20 *238:10 0
33 *205:24 *238:10 9.12494e-06
34 *205:24 *238:19 0.000109275
*RES
1 *1511:Y *238:10 34.155 
2 *238:10 *1555:B 3.6 
3 *238:10 *238:19 1.89 
4 *238:19 *1564:A2 6.12 
5 *238:19 *1517:A2 6 
*END

*D_NET *239 0.0061639
*CONN
*I *1516:A I *D sky130_fd_sc_hd__nand4_1
*I *1556:A I *D sky130_fd_sc_hd__and2_1
*I *1584:A I *D sky130_fd_sc_hd__or2_1
*I *1578:B I *D sky130_fd_sc_hd__nand2_1
*I *1585:A2 I *D sky130_fd_sc_hd__a21oi_1
*I *1512:X O *D sky130_fd_sc_hd__xor2_2
*CAP
1 *1516:A 0.000296374
2 *1556:A 2.59868e-05
3 *1584:A 0.000119158
4 *1578:B 0.000160599
5 *1585:A2 3.51433e-05
6 *1512:X 0
7 *239:49 0.000614659
8 *239:34 0.000479808
9 *239:6 0.000355044
10 *239:4 0.000227654
11 *1516:A *1516:C 0.000259112
12 *1516:A *1517:B1 0.000129325
13 *1516:A *1556:B 2.68526e-05
14 *1516:A *1564:B1_N 5.08353e-05
15 *1516:A *279:55 0.000325951
16 *1516:A *280:12 3.04704e-05
17 *1516:A *385:100 0.000240272
18 *1516:A *389:157 7.38595e-05
19 *1556:A *1556:B 2.98656e-05
20 *1556:A *240:12 1.77945e-05
21 *1556:A *385:100 4.66108e-05
22 *1578:B *1585:A1 5.27104e-05
23 *1578:B *360:168 0
24 *1578:B *474:25 0.000323441
25 *1584:A *303:133 0.00015639
26 *1585:A2 *1586:B2 5.30673e-05
27 *1585:A2 *389:36 8.65905e-05
28 *239:6 *1586:B2 9.30497e-05
29 *239:6 *389:36 0.000452558
30 *239:34 *1581:A2 5.80749e-05
31 *239:34 *389:36 4.66108e-05
32 *239:49 *279:55 0
33 *239:49 *303:133 0.000334579
34 *239:49 *389:10 0.000336966
35 *149:70 *239:34 0.000111787
36 *160:35 *239:49 5.31892e-05
37 *160:39 *1584:A 0.000302126
38 *160:39 *239:49 0.000157386
39 *163:22 *239:49 0
*RES
1 *1512:X *239:4 1.6 
2 *239:4 *239:6 4.245 
3 *239:6 *1585:A2 2.755 
4 *239:6 *1578:B 9.53 
5 *239:4 *239:34 5.83 
6 *239:34 *1584:A 4.465 
7 *239:34 *239:49 11.395 
8 *239:49 *1556:A 2.41 
9 *239:49 *1516:A 14.495 
*END

*D_NET *240 0.00281078
*CONN
*I *1580:A3 I *D sky130_fd_sc_hd__a31o_1
*I *1579:B1 I *D sky130_fd_sc_hd__a21oi_1
*I *1556:B I *D sky130_fd_sc_hd__and2_1
*I *1516:B I *D sky130_fd_sc_hd__nand4_1
*I *1513:X O *D sky130_fd_sc_hd__xor2_2
*CAP
1 *1580:A3 0
2 *1579:B1 0.000108049
3 *1556:B 7.69819e-05
4 *1516:B 0.000127308
5 *1513:X 3.79855e-05
6 *240:36 0.000125522
7 *240:12 0.000389767
8 *240:6 0.000240936
9 *1516:B *1565:A2 4.46808e-07
10 *1516:B *1577:C_N 0.000285439
11 *1516:B *1679:A0 5.50305e-05
12 *1516:B *1824:A 0.000179582
13 *1556:B *1565:A2 2.20725e-05
14 *1556:B *280:12 1.14169e-05
15 *1556:B *298:6 4.66108e-05
16 *1556:B *385:100 2.50191e-05
17 *1579:B1 *1579:A2 5.69036e-05
18 *1579:B1 *1580:A2 0.000109489
19 *1579:B1 *1581:B1 1.21256e-05
20 *1579:B1 *254:82 7.08257e-05
21 *1579:B1 *279:8 8.41384e-05
22 *1579:B1 *299:6 2.21074e-05
23 *240:6 *1581:B2 1.56428e-05
24 *240:6 *385:100 4.07949e-05
25 *240:12 *1577:C_N 9.01925e-05
26 *240:12 *1580:A1 2.76356e-05
27 *240:12 *298:6 3.10949e-05
28 *240:12 *385:100 0.000443154
29 *1516:A *1556:B 2.68526e-05
30 *1556:A *1556:B 2.98656e-05
31 *1556:A *240:12 1.77945e-05
*RES
1 *1513:X *240:6 2.4175 
2 *240:6 *240:12 5.1975 
3 *240:12 *1516:B 9.47 
4 *240:12 *1556:B 3.445 
5 *240:6 *240:36 0.4275 
6 *240:36 *1579:B1 8.39 
7 *240:36 *1580:A3 1.6 
*END

*D_NET *241 0.00520371
*CONN
*I *1567:B I *D sky130_fd_sc_hd__nand3_1
*I *1566:B1 I *D sky130_fd_sc_hd__a21oi_1
*I *1558:A3 I *D sky130_fd_sc_hd__a41o_1
*I *1516:C I *D sky130_fd_sc_hd__nand4_1
*I *1514:X O *D sky130_fd_sc_hd__xor2_2
*CAP
1 *1567:B 8.07214e-06
2 *1566:B1 0.000471511
3 *1558:A3 1.36534e-05
4 *1516:C 0.000285767
5 *1514:X 0.000132983
6 *241:40 0.000618972
7 *241:12 0.00069608
8 *241:10 0.000669032
9 *1516:C *1517:B1 2.39856e-05
10 *1516:C *1558:A1 0.00011099
11 *1516:C *1573:A1 2.50602e-05
12 *1516:C *279:55 2.81894e-05
13 *1516:C *389:157 0.000204463
14 *1558:A3 *1558:A4 4.66108e-05
15 *1558:A3 *1558:B1 4.66108e-05
16 *1566:B1 *1567:A 2.5684e-06
17 *1566:B1 *1568:B1 0.00037746
18 *1566:B1 *1570:A1 8.52972e-05
19 *1567:B *1566:A1 5.19006e-06
20 *1567:B *1567:A 9.13949e-06
21 *241:10 *389:157 0.000135258
22 *241:12 *1438:A1 0
23 *241:12 *280:12 0
24 *241:12 *389:157 0.00071683
25 *241:40 *1567:A 2.90115e-05
26 *1516:A *1516:C 0.000259112
27 *1568:A1 *1566:B1 3.12916e-05
28 *1568:A2 *1566:B1 4.77769e-05
29 *149:104 *241:10 0.000122797
*RES
1 *1514:X *241:10 6.375 
2 *241:10 *241:12 8.52 
3 *241:12 *1516:C 9.555 
4 *241:12 *1558:A3 4.05 
5 *241:10 *241:40 4.295 
6 *241:40 *1566:B1 9.37 
7 *241:40 *1567:B 1.96 
*END

*D_NET *242 0.00249228
*CONN
*I *1573:B1 I *D sky130_fd_sc_hd__a211o_1
*I *1558:A4 I *D sky130_fd_sc_hd__a41o_1
*I *1565:B1 I *D sky130_fd_sc_hd__o21ai_2
*I *1516:D I *D sky130_fd_sc_hd__nand4_1
*I *1515:X O *D sky130_fd_sc_hd__xor2_2
*CAP
1 *1573:B1 0
2 *1558:A4 0.000122082
3 *1565:B1 0
4 *1516:D 0.000149557
5 *1515:X 8.28786e-05
6 *242:29 0.000277751
7 *242:23 0.000155668
8 *242:10 0.000232435
9 *1516:D *1573:A1 0.000173867
10 *1558:A4 *1558:A1 4.77719e-05
11 *1558:A4 *1558:A2 0.000197826
12 *1558:A4 *1558:B1 5.63513e-05
13 *242:29 *1558:B1 3.50152e-06
14 *242:29 *1565:A1 4.66108e-05
15 *242:29 *1565:A2 0.000122325
16 *242:29 *1573:A2 3.0145e-05
17 *242:29 *286:16 4.5835e-05
18 *242:29 *288:10 0.000155497
19 *1438:B1 *242:10 8.65905e-05
20 *1558:A3 *1558:A4 4.66108e-05
21 *1562:B *1516:D 0.000200049
22 *1562:B *242:10 0.000131729
23 *153:41 *1516:D 3.04982e-05
24 *153:41 *242:10 4.84116e-05
25 *165:10 *242:10 4.82863e-05
*RES
1 *1515:X *242:10 6.03 
2 *242:10 *1516:D 7.14 
3 *242:10 *242:23 2 
4 *242:23 *242:29 3.585 
5 *242:29 *1565:B1 1.6 
6 *242:29 *1558:A4 4.465 
7 *242:23 *1573:B1 1.6 
*END

*D_NET *243 0.00163408
*CONN
*I *1517:B1 I *D sky130_fd_sc_hd__a21oi_1
*I *1516:Y O *D sky130_fd_sc_hd__nand4_1
*CAP
1 *1517:B1 0.000433837
2 *1516:Y 0.000433837
3 *1517:B1 *1573:A1 0.000267526
4 *1517:B1 *389:157 0
5 *1516:A *1517:B1 0.000129325
6 *1516:C *1517:B1 2.39856e-05
7 *1520:A2 *1517:B1 6.55706e-05
8 *1557:B1 *1517:B1 5.62881e-05
9 *159:41 *1517:B1 0.000120655
10 *173:107 *1517:B1 4.77719e-05
11 *200:50 *1517:B1 2.49909e-05
12 *200:54 *1517:B1 3.02926e-05
*RES
1 *1516:Y *1517:B1 15.765 
*END

*D_NET *244 0.00163482
*CONN
*I *1523:A2 I *D sky130_fd_sc_hd__o21bai_2
*I *1544:A2 I *D sky130_fd_sc_hd__o21bai_2
*I *1517:Y O *D sky130_fd_sc_hd__a21oi_1
*CAP
1 *1523:A2 0.00014848
2 *1544:A2 0
3 *1517:Y 0.00027262
4 *244:10 0.0004211
5 *1523:A2 *1523:B1_N 4.47125e-05
6 *1523:A2 *1742:A 9.67081e-06
7 *1523:A2 *269:12 7.42728e-05
8 *1523:A2 *269:31 7.60965e-05
9 *244:10 *1742:A 0.000352873
10 *244:10 *278:10 0
11 *1517:A2 *244:10 5.16418e-05
12 *1520:A1 *244:10 0
13 *1523:A1 *1523:A2 9.54322e-05
14 *1523:A1 *244:10 2.99518e-06
15 *159:41 *244:10 0
16 *200:50 *244:10 8.49205e-05
*RES
1 *1517:Y *244:10 9.09 
2 *244:10 *1544:A2 3.6 
3 *244:10 *1523:A2 7.08 
*END

*D_NET *245 0.00310565
*CONN
*I *1547:B1 I *D sky130_fd_sc_hd__o211ai_1
*I *1522:A I *D sky130_fd_sc_hd__nand3_1
*I *1545:B1 I *D sky130_fd_sc_hd__a21oi_1
*I *1518:X O *D sky130_fd_sc_hd__xor2_1
*CAP
1 *1547:B1 0
2 *1522:A 0.000103725
3 *1545:B1 0.00011558
4 *1518:X 0.00047466
5 *245:16 0.000312852
6 *245:12 0.000568208
7 *1522:A *1545:A1 1.01276e-05
8 *1522:A *246:16 0.000177055
9 *1522:A *250:6 8.65905e-05
10 *1522:A *269:31 0.00013661
11 *1545:B1 *1545:A1 4.66108e-05
12 *1545:B1 *1547:C1 2.89963e-05
13 *1545:B1 *1550:A1 8.34281e-06
14 *245:12 *1519:A 0.000130948
15 *245:12 *1550:A1 0.000116165
16 *245:12 *1551:C 1.54568e-05
17 *245:12 *1552:A 0
18 *245:12 *1552:B 3.89366e-05
19 *245:12 *1661:A1 0.000263452
20 *245:12 *246:10 0.000122074
21 *245:12 *246:16 4.18603e-06
22 *245:12 *380:103 0.00012398
23 *245:16 *1547:C1 0.000102275
24 *1514:B *245:12 8.23457e-05
25 *161:86 *245:12 3.64696e-05
*RES
1 *1518:X *245:12 15.62 
2 *245:12 *245:16 1.845 
3 *245:16 *1545:B1 3.445 
4 *245:16 *1522:A 8.54 
5 *245:12 *1547:B1 1.6 
*END

*D_NET *246 0.00432269
*CONN
*I *1551:C I *D sky130_fd_sc_hd__or3_1
*I *1547:A1 I *D sky130_fd_sc_hd__o211ai_1
*I *1525:A2 I *D sky130_fd_sc_hd__a221o_1
*I *1521:B1 I *D sky130_fd_sc_hd__a311o_1
*I *1520:B1 I *D sky130_fd_sc_hd__o21ai_1
*I *1519:Y O *D sky130_fd_sc_hd__inv_2
*CAP
1 *1551:C 8.87689e-05
2 *1547:A1 0
3 *1525:A2 0.000130282
4 *1521:B1 1.61151e-05
5 *1520:B1 0.000144246
6 *1519:Y 8.90386e-05
7 *246:33 0.000188742
8 *246:16 0.000461433
9 *246:10 0.000500144
10 *246:8 0.00040311
11 *1520:B1 *1522:B 4.18603e-06
12 *1520:B1 *1543:B 4.99619e-05
13 *1520:B1 *1544:B1_N 2.05056e-05
14 *1520:B1 *1557:A1 1.83756e-05
15 *1520:B1 *1732:A 0.000110897
16 *1520:B1 *247:19 2.03321e-05
17 *1520:B1 *248:6 3.45679e-05
18 *1520:B1 *248:17 0.000136884
19 *1520:B1 *248:32 2.14129e-05
20 *1525:A2 *1521:A1 8.34281e-06
21 *1551:C *1552:A 2.09974e-05
22 *1551:C *266:161 6.2139e-05
23 *246:8 *1519:A 2.69153e-05
24 *246:8 *266:161 2.50267e-05
25 *246:10 *1550:A1 6.28843e-05
26 *246:10 *1550:B1_N 5.85076e-05
27 *246:10 *1552:A 0.000130849
28 *246:10 *278:10 0
29 *246:16 *1545:A1 0
30 *246:16 *1547:A2 0.00043645
31 *246:16 *1661:A1 0
32 *246:16 *248:17 0
33 *246:16 *248:32 0
34 *246:16 *269:31 1.26626e-05
35 *246:33 *1521:A1 4.99619e-05
36 *1521:A2 *246:33 2.0514e-05
37 *1521:C1 *1521:B1 8.52137e-06
38 *1521:C1 *1525:A2 1.91597e-05
39 *1521:C1 *246:33 2.05056e-05
40 *1522:A *246:16 0.000177055
41 *1525:B2 *1525:A2 3.76287e-05
42 *1525:C1 *1525:A2 8.65961e-05
43 *1551:A *1551:C 4.887e-05
44 *173:91 *1525:A2 9.45457e-05
45 *173:107 *1520:B1 0.00011577
46 *173:107 *1525:A2 0.0001228
47 *173:107 *246:33 9.52646e-05
48 *245:12 *1551:C 1.54568e-05
49 *245:12 *246:10 0.000122074
50 *245:12 *246:16 4.18603e-06
*RES
1 *1519:Y *246:8 4.74 
2 *246:8 *246:10 5.46 
3 *246:10 *246:16 8.33 
4 *246:16 *1520:B1 10.115 
5 *246:16 *246:33 1.485 
6 *246:33 *1521:B1 1.96 
7 *246:33 *1525:A2 5.29375 
8 *246:10 *1547:A1 3.6 
9 *246:8 *1551:C 5.80875 
*END

*D_NET *247 0.00198627
*CONN
*I *1522:B I *D sky130_fd_sc_hd__nand3_1
*I *1543:B I *D sky130_fd_sc_hd__nand2_1
*I *1557:A2 I *D sky130_fd_sc_hd__a21o_1
*I *1520:Y O *D sky130_fd_sc_hd__o21ai_1
*CAP
1 *1522:B 0.000176476
2 *1543:B 4.02551e-05
3 *1557:A2 0.000146861
4 *1520:Y 0
5 *247:19 0.000229051
6 *247:6 0.000159181
7 *1522:B *1522:C 8.65905e-05
8 *1522:B *1523:B1_N 2.30292e-05
9 *1522:B *1545:A1 0
10 *1522:B *248:32 0
11 *1522:B *250:6 0.000124895
12 *1522:B *278:10 0.000166711
13 *1543:B *1543:A 0
14 *1543:B *1544:B1_N 8.65961e-05
15 *1557:A2 *1557:A1 0.000198819
16 *1557:A2 *1732:A 0.000138277
17 *1557:A2 *278:10 0.000136604
18 *247:19 *1732:A 9.50342e-06
19 *247:19 *278:10 4.54719e-05
20 *1520:A1 *1543:B 1.23707e-05
21 *1520:B1 *1522:B 4.18603e-06
22 *1520:B1 *1543:B 4.99619e-05
23 *1520:B1 *247:19 2.03321e-05
24 *173:107 *1557:A2 0.000131098
*RES
1 *1520:Y *247:6 3.6 
2 *247:6 *1557:A2 8.445 
3 *247:6 *247:19 0.615 
4 *247:19 *1543:B 4.755 
5 *247:19 *1522:B 7.335 
*END

*D_NET *248 0.00284232
*CONN
*I *1545:A1 I *D sky130_fd_sc_hd__a21oi_1
*I *1522:C I *D sky130_fd_sc_hd__nand3_1
*I *1543:A I *D sky130_fd_sc_hd__nand2_1
*I *1557:A1 I *D sky130_fd_sc_hd__a21o_1
*I *1521:X O *D sky130_fd_sc_hd__a311o_1
*CAP
1 *1545:A1 0.00019448
2 *1522:C 4.76377e-05
3 *1543:A 4.54278e-05
4 *1557:A1 0.000405662
5 *1521:X 5.47864e-05
6 *248:32 0.000381454
7 *248:17 0.000308914
8 *248:6 0.000584598
9 *1522:C *1523:B1_N 4.99619e-05
10 *1543:A *1732:A 4.69283e-06
11 *1545:A1 *1550:A1 2.37414e-05
12 *1545:A1 *1550:B1_N 0.000139238
13 *1545:A1 *269:31 1.0129e-05
14 *1545:A1 *278:10 0
15 *248:17 *1547:A2 0
16 *248:17 *1732:A 2.26468e-05
17 *1520:B1 *1557:A1 1.83756e-05
18 *1520:B1 *248:6 3.45679e-05
19 *1520:B1 *248:17 0.000136884
20 *1520:B1 *248:32 2.14129e-05
21 *1522:A *1545:A1 1.01276e-05
22 *1522:B *1522:C 8.65905e-05
23 *1522:B *1545:A1 0
24 *1522:B *248:32 0
25 *1543:B *1543:A 0
26 *1545:B1 *1545:A1 4.66108e-05
27 *1557:A2 *1557:A1 0.000198819
28 *173:107 *1557:A1 1.5567e-05
29 *246:16 *1545:A1 0
30 *246:16 *248:17 0
31 *246:16 *248:32 0
*RES
1 *1521:X *248:6 2.395 
2 *248:6 *1557:A1 6.535 
3 *248:6 *248:17 4.4 
4 *248:17 *1543:A 4.4625 
5 *248:17 *248:32 1.89 
6 *248:32 *1522:C 4.755 
7 *248:32 *1545:A1 6.96 
*END

*D_NET *249 0.000913291
*CONN
*I *1523:B1_N I *D sky130_fd_sc_hd__o21bai_2
*I *1522:Y O *D sky130_fd_sc_hd__nand3_1
*CAP
1 *1523:B1_N 0.000308238
2 *1522:Y 0.000308238
3 *1523:B1_N *250:6 9.80943e-06
4 *1523:B1_N *269:31 1.03423e-05
5 *1522:B *1523:B1_N 2.30292e-05
6 *1522:C *1523:B1_N 4.99619e-05
7 *1523:A1 *1523:B1_N 0.00015896
8 *1523:A2 *1523:B1_N 4.47125e-05
*RES
1 *1522:Y *1523:B1_N 7.37 
*END

*D_NET *250 0.00385564
*CONN
*I *1526:B1 I *D sky130_fd_sc_hd__a22oi_1
*I *1538:A1 I *D sky130_fd_sc_hd__a31oi_1
*I *1536:A1 I *D sky130_fd_sc_hd__a21o_1
*I *1523:Y O *D sky130_fd_sc_hd__o21bai_2
*CAP
1 *1526:B1 0.000259228
2 *1538:A1 0
3 *1536:A1 0.000105305
4 *1523:Y 0.000422424
5 *250:6 0.000786957
6 *1526:B1 *1532:A2_N 9.40178e-05
7 *1526:B1 *1538:B1 0.000342551
8 *1526:B1 *1539:B 1.91597e-05
9 *1526:B1 *256:8 3.38341e-05
10 *1526:B1 *483:36 0.000249156
11 *1536:A1 *1538:A3 0.000134634
12 *1536:A1 *252:25 8.08789e-05
13 *1536:A1 *261:10 2.75229e-05
14 *1536:A1 *266:155 2.68721e-05
15 *1536:A1 *483:36 2.85364e-05
16 *250:6 *1538:A3 4.66108e-05
17 *250:6 *1539:B 0.000134922
18 *250:6 *1549:A1 2.16833e-05
19 *250:6 *1549:B1 4.66108e-05
20 *250:6 *1550:B1_N 0.000191802
21 *250:6 *256:8 0.000151512
22 *250:6 *269:31 0.000312964
23 *1522:A *250:6 8.65905e-05
24 *1522:B *250:6 0.000124895
25 *1523:A1 *250:6 4.66742e-05
26 *1523:B1_N *250:6 9.80943e-06
27 *1526:A2 *1526:B1 1.77665e-05
28 *1594:A2 *1526:B1 5.27253e-05
29 *1594:A3 *1526:B1 0
*RES
1 *1523:Y *250:6 12.4 
2 *250:6 *1536:A1 8.195 
3 *250:6 *1538:A1 1.6 
4 *250:6 *1526:B1 12.35 
*END

*D_NET *251 0.00328256
*CONN
*I *1542:B2 I *D sky130_fd_sc_hd__o2bb2ai_1
*I *1549:A1 I *D sky130_fd_sc_hd__a31o_1
*I *1525:A1 I *D sky130_fd_sc_hd__a221o_1
*I *1524:Y O *D sky130_fd_sc_hd__inv_2
*CAP
1 *1542:B2 0
2 *1549:A1 5.62856e-05
3 *1525:A1 0.000148412
4 *1524:Y 7.59846e-05
5 *251:16 0.000819626
6 *251:6 0.000690913
7 *1525:A1 *1661:A1 0
8 *1525:A1 *256:21 0.000335856
9 *1549:A1 *1549:B1 1.08758e-05
10 *1549:A1 *256:8 2.26862e-05
11 *251:6 *380:103 0.000122202
12 *251:16 *1539:B 5.92849e-05
13 *251:16 *1542:A2_N 0.000576815
14 *251:16 *1661:A1 0
15 *251:16 *256:21 5.16348e-05
16 *251:16 *266:155 0
17 *251:16 *380:103 0.000122821
18 *251:16 *381:54 0
19 *1525:B1 *1525:A1 9.50342e-06
20 *1549:A2 *1525:A1 0.0001311
21 *1549:A2 *251:16 2.68721e-05
22 *161:86 *251:16 0
23 *250:6 *1549:A1 2.16833e-05
*RES
1 *1524:Y *251:6 2.74 
2 *251:6 *251:16 14 
3 *251:16 *1525:A1 7.53 
4 *251:16 *1549:A1 4.77 
5 *251:6 *1542:B2 1.6 
*END

*D_NET *252 0.00230825
*CONN
*I *1526:B2 I *D sky130_fd_sc_hd__a22oi_1
*I *1536:A2 I *D sky130_fd_sc_hd__a21o_1
*I *1538:A2 I *D sky130_fd_sc_hd__a31oi_1
*I *1525:X O *D sky130_fd_sc_hd__a221o_1
*CAP
1 *1526:B2 0.000209366
2 *1536:A2 0
3 *1538:A2 0
4 *1525:X 0.000272924
5 *252:25 0.000463339
6 *252:12 0.000526897
7 *1526:B2 *1535:A 8.35106e-05
8 *1526:B2 *1536:B1 4.00541e-06
9 *1526:B2 *261:10 1.78928e-05
10 *252:12 *256:8 0.000198945
11 *252:12 *256:21 0.000135631
12 *252:12 *266:155 0
13 *252:25 *1535:A 9.09788e-06
14 *252:25 *1646:C 0
15 *252:25 *256:8 0.000122325
16 *252:25 *483:36 9.14245e-05
17 *1526:A2 *1526:B2 2.39856e-05
18 *1536:A1 *252:25 8.08789e-05
19 *1594:A2 *252:25 1.83428e-05
20 *161:68 *1526:B2 4.41506e-05
21 *173:91 *252:12 5.53249e-06
*RES
1 *1525:X *252:12 10.34 
2 *252:12 *1538:A2 1.6 
3 *252:12 *252:25 8.05 
4 *252:25 *1536:A2 1.6 
5 *252:25 *1526:B2 4.825 
*END

*D_NET *253 0.000725449
*CONN
*I *1532:A2_N I *D sky130_fd_sc_hd__a2bb2o_1
*I *1526:Y O *D sky130_fd_sc_hd__a22oi_1
*CAP
1 *1532:A2_N 0.000183556
2 *1526:Y 0.000183556
3 *1532:A2_N *1526:A1 0
4 *1532:A2_N *1646:C 6.70613e-05
5 *1532:A2_N *390:113 2.20014e-05
6 *1437:C1 *1532:A2_N 8.4841e-05
7 *1526:B1 *1532:A2_N 9.40178e-05
8 *1532:A1_N *1532:A2_N 4.77757e-05
9 *1594:A2 *1532:A2_N 3.82741e-05
10 *1594:A3 *1532:A2_N 0
11 *161:66 *1532:A2_N 4.36573e-06
*RES
1 *1526:Y *1532:A2_N 11.31 
*END

*D_NET *254 0.0212495
*CONN
*I *1559:A2 I *D sky130_fd_sc_hd__a22o_1
*I *1549:A3 I *D sky130_fd_sc_hd__a31o_1
*I *1574:A2 I *D sky130_fd_sc_hd__a22o_1
*I *1528:B I *D sky130_fd_sc_hd__nand2_2
*I *1620:A3 I *D sky130_fd_sc_hd__a32o_1
*I *1625:A3 I *D sky130_fd_sc_hd__a32o_1
*I *1609:A3 I *D sky130_fd_sc_hd__a31o_1
*I *1527:Y O *D sky130_fd_sc_hd__nand2_4
*CAP
1 *1559:A2 0
2 *1549:A3 0.00047942
3 *1574:A2 4.69981e-05
4 *1528:B 3.81978e-05
5 *1620:A3 3.71682e-05
6 *1625:A3 0.00013556
7 *1609:A3 0.00100937
8 *1527:Y 0.000115705
9 *254:99 0.00117466
10 *254:82 0.00170653
11 *254:63 0.00151681
12 *254:48 0.000715631
13 *254:33 0.00154797
14 *254:10 0.00237335
15 *1528:B *306:12 8.65961e-05
16 *1528:B *361:42 0.000198429
17 *1528:B *383:156 6.45562e-05
18 *1549:A3 *269:12 6.63219e-06
19 *1549:A3 *359:95 0.00115135
20 *1549:A3 *384:108 6.60782e-05
21 *1549:A3 *384:135 0.00041125
22 *1549:A3 *389:157 0
23 *1574:A2 *1616:B1 4.93711e-05
24 *1609:A3 *1458:A1 3.52139e-06
25 *1609:A3 *325:14 2.19562e-06
26 *1609:A3 *470:46 1.56428e-05
27 *1609:A3 *480:33 0.000189287
28 *1625:A3 *1621:B1 7.81894e-05
29 *1625:A3 *1624:A1 0
30 *1625:A3 *1624:B1 0.000157595
31 *1625:A3 *467:31 4.29526e-05
32 *254:10 *480:33 8.06526e-05
33 *254:33 *1443:A 2.68464e-05
34 *254:33 *1497:A2 2.87433e-05
35 *254:33 *476:32 0.000109019
36 *254:33 *476:45 7.3151e-05
37 *254:48 *1620:B2 9.3062e-06
38 *254:48 *1621:B1 0.000102935
39 *254:63 *1615:C1 0.000141599
40 *254:63 *1849:A 0
41 *254:63 *468:36 0.00017338
42 *254:82 *1438:A3 0.000265276
43 *254:82 *1580:B1 0.000114517
44 *254:82 *1581:B1 1.55955e-05
45 *254:82 *1586:B1 0.00030698
46 *254:82 *1681:A0 0.000420443
47 *254:82 *1849:A 0
48 *254:82 *278:61 0.000464729
49 *254:82 *303:133 0.000174076
50 *254:82 *306:12 6.02202e-05
51 *254:82 *462:23 4.76303e-05
52 *254:82 *474:57 6.74079e-05
53 *254:99 *1438:A3 0.000223902
54 *254:99 *1559:B1 6.30071e-05
55 *254:99 *1559:B2 0.000117939
56 *254:99 *1561:B1 4.1652e-06
57 *254:99 *269:12 1.59617e-05
58 *254:99 *462:32 2.05056e-05
59 *1454:A *1609:A3 0.000160641
60 *1454:B *1609:A3 1.16624e-05
61 *1457:A1 *1609:A3 0
62 *1458:A2 *1609:A3 2.01565e-05
63 *1489:A2 *254:33 0.000159156
64 *1498:A *254:33 2.69272e-05
65 *1500:A *254:63 9.88172e-06
66 *1549:A2 *1549:A3 1.92979e-05
67 *1562:B *1574:A2 1.80324e-05
68 *1574:A1 *1549:A3 3.60024e-06
69 *1574:A1 *254:99 3.32192e-05
70 *1579:B1 *254:82 7.08257e-05
71 *1615:B1 *254:63 0.000319635
72 *1619:A1 *254:48 0
73 *1619:A1 *254:63 2.96556e-06
74 *1625:A2 *1620:A3 3.89665e-05
75 *1625:A2 *1625:A3 0.000168361
76 *1625:A2 *254:48 0.000380097
77 *1644:A2 *254:33 0.000454233
78 *148:16 *254:33 7.21296e-06
79 *149:70 *254:63 0
80 *149:70 *254:82 0.000244903
81 *153:12 *254:33 0.000746855
82 *153:41 *1574:A2 0.000139245
83 *155:26 *1609:A3 0.000156923
84 *165:10 *254:99 1.81138e-05
85 *170:21 *254:33 0.000238137
86 *170:25 *254:10 6.45236e-05
87 *170:25 *254:33 7.06865e-05
88 *170:31 *254:10 8.53113e-06
89 *173:30 *1620:A3 5.49838e-05
90 *173:30 *254:63 0.000440016
91 *179:14 *1609:A3 3.37462e-05
92 *179:40 *1609:A3 2.23477e-05
93 *185:18 *1609:A3 0.000307604
94 *220:10 *1625:A3 7.23533e-05
95 *220:10 *254:48 0.000176647
*RES
1 *1527:Y *254:10 5.61 
2 *254:10 *1609:A3 16.395 
3 *254:10 *254:33 23.635 
4 *254:33 *1625:A3 7.575 
5 *254:33 *254:48 5.0775 
6 *254:48 *1620:A3 4.6275 
7 *254:48 *254:63 12.6675 
8 *254:63 *1528:B 5.43 
9 *254:63 *254:82 24.395 
10 *254:82 *1574:A2 7.235 
11 *254:82 *254:99 10.91 
12 *254:99 *1549:A3 6.79273 
13 *254:99 *1559:A2 3.6 
*END

*D_NET *255 0.0170346
*CONN
*I *1581:A2 I *D sky130_fd_sc_hd__o22ai_1
*I *1531:A1 I *D sky130_fd_sc_hd__a21oi_1
*I *1604:A2 I *D sky130_fd_sc_hd__o221a_1
*I *1608:A I *D sky130_fd_sc_hd__and3_1
*I *1616:A2 I *D sky130_fd_sc_hd__o211ai_1
*I *1528:Y O *D sky130_fd_sc_hd__nand2_2
*CAP
1 *1581:A2 0.000807964
2 *1531:A1 0.000585998
3 *1604:A2 0.000479899
4 *1608:A 0.000577603
5 *1616:A2 8.97155e-05
6 *1528:Y 2.65736e-05
7 *255:52 0.00149205
8 *255:35 0.0031676
9 *255:10 0.00231949
10 *255:8 0.000900466
11 *1531:A1 *1530:B 0
12 *1531:A1 *1531:B1 2.21074e-05
13 *1531:A1 *1532:B1 0.000122821
14 *1531:A1 *1671:B1 0
15 *1531:A1 *256:59 8.12301e-05
16 *1531:A1 *385:102 0.000356683
17 *1531:A1 *400:28 0
18 *1531:A1 *472:12 0.000160342
19 *1581:A2 *1580:B1 0
20 *1581:A2 *1581:B1 0.000268739
21 *1581:A2 *1647:C1 2.05641e-05
22 *1581:A2 *485:22 0.000132827
23 *1604:A2 *1671:B1 0
24 *1604:A2 *385:102 0.000651587
25 *1608:A *1607:B1 0.000103321
26 *1608:A *1608:C 0.000322136
27 *1608:A *263:92 4.66108e-05
28 *1608:A *469:45 0.00015829
29 *1616:A2 *1616:B1 0.000102096
30 *255:8 *361:42 4.41506e-05
31 *255:8 *383:156 8.41307e-05
32 *255:35 *303:20 2.75707e-05
33 *255:52 *1597:B1 8.65961e-05
34 *255:52 *308:18 7.35284e-05
35 *1472:A2 *255:35 3.9442e-05
36 *1478:B1 *255:52 0.000165787
37 *1511:A *1608:A 5.21545e-05
38 *1511:C *1608:A 0.000244453
39 *1528:A *255:10 7.47284e-05
40 *1601:A2 *1604:A2 0.000114643
41 *1767:D *1604:A2 0
42 *149:43 *1616:A2 2.97004e-06
43 *149:70 *1581:A2 0.000202089
44 *149:70 *1616:A2 9.49203e-05
45 *149:70 *255:10 5.64143e-05
46 *153:41 *1581:A2 0.000489411
47 *153:41 *1616:A2 7.0152e-05
48 *153:41 *255:10 4.39001e-05
49 *161:20 *1581:A2 0.000238785
50 *163:111 *1531:A1 7.55064e-05
51 *172:21 *255:35 5.98034e-05
52 *172:38 *255:35 0.000382752
53 *173:20 *255:35 0.000500692
54 *173:75 *255:35 4.43682e-05
55 *173:152 *255:35 0.00019816
56 *173:158 *1608:A 0
57 *173:162 *1608:A 0
58 *193:44 *255:52 0.000197269
59 *229:22 *1608:A 0.00030633
60 *237:12 *1608:A 9.12359e-06
61 *239:34 *1581:A2 5.80749e-05
*RES
1 *1528:Y *255:8 4.395 
2 *255:8 *255:10 1.89 
3 *255:10 *1616:A2 6.255 
4 *255:10 *255:35 35.145 
5 *255:35 *1608:A 18.395 
6 *255:35 *255:52 9.005 
7 *255:52 *1604:A2 13.95 
8 *255:52 *1531:A1 17.25 
9 *255:8 *1581:A2 19.38 
*END

*D_NET *256 0.0119228
*CONN
*I *1697:D I *D sky130_fd_sc_hd__or4_1
*I *1627:A I *D sky130_fd_sc_hd__nand2_8
*I *1700:B I *D sky130_fd_sc_hd__or2_1
*I *1703:A2 I *D sky130_fd_sc_hd__o211ai_1
*I *1530:A I *D sky130_fd_sc_hd__and2_1
*I *1646:A I *D sky130_fd_sc_hd__and3_1
*I *1582:A I *D sky130_fd_sc_hd__clkbuf_4
*I *1549:B1 I *D sky130_fd_sc_hd__a31o_1
*I *1529:Y O *D sky130_fd_sc_hd__inv_2
*CAP
1 *1697:D 0
2 *1627:A 0
3 *1700:B 9.76892e-05
4 *1703:A2 0.00011208
5 *1530:A 0
6 *1646:A 0.000224345
7 *1582:A 1.64741e-05
8 *1549:B1 1.95081e-05
9 *1529:Y 0
10 *256:83 9.76892e-05
11 *256:72 0.000291176
12 *256:68 0.000386182
13 *256:59 0.000886657
14 *256:21 0.000695435
15 *256:8 0.00118941
16 *256:4 0.00139486
17 *1582:A *483:61 8.53011e-05
18 *1646:A *266:119 0.000170093
19 *1646:A *266:155 0.000157957
20 *1646:A *473:32 0.000158066
21 *1646:A *483:61 7.38779e-05
22 *1700:B *1700:A 4.82919e-05
23 *1700:B *339:6 1.77595e-05
24 *1700:B *339:139 3.88244e-05
25 *1700:B *400:22 0.000270618
26 *1703:A2 *339:10 5.91798e-05
27 *1703:A2 *339:16 4.39088e-05
28 *1703:A2 *359:18 8.82674e-05
29 *256:8 *1538:A3 4.82919e-05
30 *256:8 *1538:B1 0.000752668
31 *256:8 *390:42 0.000237244
32 *256:21 *266:155 0
33 *256:59 *1637:A 0.000116158
34 *256:59 *1668:B2 4.05358e-05
35 *256:59 *1671:A1 0.000389836
36 *256:59 *1758:A 0.000129372
37 *256:59 *278:123 0.000271125
38 *256:59 *359:18 0
39 *256:59 *385:100 0
40 *256:59 *385:102 0.000401861
41 *256:59 *390:42 0.000119756
42 *256:68 *1697:A 8.66466e-06
43 *256:68 *1697:C 5.19006e-06
44 *256:68 *257:10 0.000106583
45 *256:68 *278:123 0.000194287
46 *256:72 *1662:D_N 0
47 *256:72 *339:10 2.45182e-05
48 *256:72 *359:18 0.000149092
49 *256:72 *494:43 0
50 *1525:A1 *256:21 0.000335856
51 *1525:B1 *256:21 0.000173402
52 *1526:B1 *256:8 3.38341e-05
53 *1531:A1 *256:59 8.12301e-05
54 *1549:A1 *1549:B1 1.08758e-05
55 *1549:A1 *256:8 2.26862e-05
56 *1801:D *256:59 5.20263e-05
57 *1812:RESET_B *256:59 0.000139108
58 *157:23 *256:21 7.91265e-05
59 *161:52 *1582:A 8.41384e-05
60 *161:52 *1646:A 0.000194914
61 *163:111 *1646:A 6.04372e-05
62 *163:124 *256:59 0
63 *173:91 *1646:A 0.00032971
64 *173:91 *256:21 0
65 *250:6 *1549:B1 4.66108e-05
66 *250:6 *256:8 0.000151512
67 *251:16 *256:21 5.16348e-05
68 *252:12 *256:8 0.000198945
69 *252:12 *256:21 0.000135631
70 *252:25 *256:8 0.000122325
*RES
1 *1529:Y *256:4 1.6 
2 *256:4 *256:8 14.61 
3 *256:8 *1549:B1 2.05 
4 *256:8 *256:21 14.05 
5 *256:21 *1582:A 2.395 
6 *256:21 *1646:A 12.845 
7 *256:4 *256:59 21.01 
8 *256:59 *1530:A 1.6 
9 *256:59 *256:68 4.26 
10 *256:68 *256:72 6.185 
11 *256:72 *1703:A2 6.255 
12 *256:72 *256:83 2 
13 *256:83 *1700:B 4.48 
14 *256:83 *1627:A 1.6 
15 *256:68 *1697:D 1.6 
*END

*D_NET *257 0.00193374
*CONN
*I *1698:A2 I *D sky130_fd_sc_hd__o21ai_1
*I *1531:B1 I *D sky130_fd_sc_hd__a21oi_1
*I *1530:X O *D sky130_fd_sc_hd__and2_1
*CAP
1 *1698:A2 7.72074e-05
2 *1531:B1 0.000297454
3 *1530:X 0.00021756
4 *257:10 0.000592222
5 *1531:B1 *472:12 4.77769e-05
6 *1531:B1 *495:61 1.22325e-05
7 *1698:A2 *1697:B 5.31158e-06
8 *1698:A2 *358:14 0.000134631
9 *1698:A2 *359:18 8.26522e-05
10 *257:10 *1697:B 7.59067e-05
11 *257:10 *278:123 4.66108e-05
12 *257:10 *359:18 7.59067e-05
13 *1531:A1 *1531:B1 2.21074e-05
14 *1696:A2 *1531:B1 8.35157e-05
15 *163:111 *1531:B1 8.28018e-06
16 *163:118 *1531:B1 4.77769e-05
17 *256:68 *257:10 0.000106583
*RES
1 *1530:X *257:10 7.41 
2 *257:10 *1531:B1 8.205 
3 *257:10 *1698:A2 5.49 
*END

*D_NET *258 0.00458372
*CONN
*I *1532:B1 I *D sky130_fd_sc_hd__a2bb2o_1
*I *1531:Y O *D sky130_fd_sc_hd__a21oi_1
*CAP
1 *1532:B1 0.00123032
2 *1531:Y 0.00123032
3 *1532:B1 *1435:A 0.000123225
4 *1532:B1 *1526:A1 9.47454e-05
5 *1532:B1 *1529:A 0.000122968
6 *1532:B1 *1671:A1 0.000729988
7 *1532:B1 *1758:A 4.55862e-05
8 *1532:B1 *259:102 0
9 *1532:B1 *360:74 4.61701e-06
10 *1532:B1 *385:100 9.82856e-06
11 *1532:B1 *385:102 8.94219e-05
12 *1532:B1 *472:12 7.4793e-05
13 *1532:B1 *472:18 6.73498e-05
14 *1532:B1 *493:14 8.49205e-05
15 *1531:A1 *1532:B1 0.000122821
16 *1594:A3 *1532:B1 9.30787e-05
17 *162:8 *1532:B1 0.000110793
18 *163:111 *1532:B1 0.000348951
*RES
1 *1531:Y *1532:B1 35.665 
*END

*D_NET *259 0.0361314
*CONN
*I *1648:A2 I *D sky130_fd_sc_hd__a22o_1
*I *1656:A2 I *D sky130_fd_sc_hd__a22o_1
*I *1652:A2 I *D sky130_fd_sc_hd__a22o_1
*I *1650:A2 I *D sky130_fd_sc_hd__a22o_1
*I *1654:A2 I *D sky130_fd_sc_hd__a22o_1
*I *1604:C1 I *D sky130_fd_sc_hd__o221a_1
*I *1534:B1 I *D sky130_fd_sc_hd__o31a_1
*I *1560:B1 I *D sky130_fd_sc_hd__o31a_1
*I *1616:B1 I *D sky130_fd_sc_hd__o211ai_1
*I *1575:B1 I *D sky130_fd_sc_hd__o31a_1
*I *1533:X O *D sky130_fd_sc_hd__clkbuf_4
*CAP
1 *1648:A2 1.20879e-05
2 *1656:A2 0.000397985
3 *1652:A2 9.69879e-05
4 *1650:A2 5.43897e-05
5 *1654:A2 0.000187418
6 *1604:C1 2.02518e-05
7 *1534:B1 0.000106472
8 *1560:B1 0.000133438
9 *1616:B1 0.00216718
10 *1575:B1 3.30173e-05
11 *1533:X 0
12 *259:141 0.000520999
13 *259:135 0.00150139
14 *259:133 0.00176362
15 *259:129 0.00213725
16 *259:102 0.00390757
17 *259:24 0.00247433
18 *259:18 0.000855882
19 *259:14 0.000895107
20 *259:4 0.00234291
21 *1534:B1 *1534:A1 4.4908e-05
22 *1534:B1 *390:113 8.22567e-05
23 *1560:B1 *1552:A 0
24 *1560:B1 *1571:B 4.97307e-05
25 *1575:B1 *381:54 0.00015896
26 *1616:B1 *1562:C_N 0
27 *1616:B1 *1616:A1 4.66108e-05
28 *1616:B1 *1616:C1 4.82863e-05
29 *1616:B1 *1679:A0 0.000989481
30 *1616:B1 *349:16 0.000398459
31 *1616:B1 *359:95 2.08619e-05
32 *1648:A2 *1648:B2 1.2383e-05
33 *1648:A2 *1740:A 3.70526e-06
34 *1650:A2 *1650:A1 0.000306848
35 *1650:A2 *1650:B1 0.000235378
36 *1650:A2 *314:52 7.14699e-05
37 *1652:A2 *1650:A1 4.89395e-05
38 *1652:A2 *387:29 0.000133453
39 *1654:A2 *1652:B2 0.000123696
40 *1654:A2 *1654:A1 0.000345661
41 *1654:A2 *1677:A0 0.000111293
42 *1654:A2 *314:65 0.000118358
43 *1654:A2 *314:73 1.56296e-05
44 *1656:A2 *1649:A1 1.92979e-05
45 *1656:A2 *1656:B2 0
46 *1656:A2 *1657:A3 6.90381e-05
47 *1656:A2 *1689:A0 4.99619e-05
48 *1656:A2 *266:28 0.000248066
49 *1656:A2 *303:47 1.64893e-05
50 *1656:A2 *314:86 0.000154022
51 *1656:A2 *486:18 4.82863e-05
52 *1656:A2 *486:35 0
53 *259:14 *278:111 9.88165e-05
54 *259:14 *381:56 0.000675838
55 *259:18 *1561:A1 0.000272903
56 *259:18 *278:20 4.71087e-05
57 *259:18 *278:111 0.000576328
58 *259:18 *381:56 0.000303268
59 *259:24 *278:10 8.66313e-05
60 *259:24 *381:54 0.00112157
61 *259:102 *1529:A 8.39664e-05
62 *259:102 *1590:A1 6.45236e-05
63 *259:102 *1597:B1 0.000113606
64 *259:102 *1598:A1 1.7902e-05
65 *259:102 *1599:A1_N 3.86607e-05
66 *259:102 *1599:B1 0
67 *259:102 *1604:B1 3.59531e-06
68 *259:102 *1671:A1 0
69 *259:102 *263:100 0
70 *259:102 *263:106 0
71 *259:102 *278:111 0
72 *259:102 *278:113 0
73 *259:102 *278:123 0
74 *259:102 *307:21 0.00022921
75 *259:102 *308:10 3.98498e-05
76 *259:102 *308:18 4.01019e-05
77 *259:102 *309:10 0
78 *259:102 *360:74 9.82856e-06
79 *259:102 *385:102 0.000163456
80 *259:102 *408:28 0.000195625
81 *259:102 *472:18 5.92781e-05
82 *259:102 *472:54 0.000141989
83 *259:129 *1604:B1 0.000734215
84 *259:129 *1740:A 4.19283e-05
85 *259:129 *303:20 0.00137358
86 *259:129 *388:14 4.91953e-05
87 *259:129 *388:18 1.52828e-05
88 *259:129 *492:48 0
89 *259:133 *1640:A0 7.82612e-05
90 *259:133 *1648:B2 2.87059e-05
91 *259:133 *388:14 7.04173e-06
92 *259:135 *1640:A0 1.32026e-05
93 *259:135 *1640:A1 0.000173922
94 *259:135 *1799:CLK 9.65143e-05
95 *259:135 *359:32 0.000107425
96 *259:135 *477:12 0.000335194
97 *259:141 *1626:A1 4.60081e-05
98 *259:141 *1652:B2 8.33066e-06
99 *259:141 *1677:A0 0.000122692
100 *259:141 *314:48 5.17419e-05
101 *1440:A *259:129 9.67081e-06
102 *1461:A *259:129 4.90071e-05
103 *1464:A1 *259:129 9.06149e-05
104 *1479:A1 *259:102 0.00015997
105 *1479:B1 *259:102 0.000114761
106 *1510:A1 *1604:C1 4.99619e-05
107 *1532:B1 *259:102 0
108 *1533:A *259:14 4.66108e-05
109 *1534:A3 *1534:B1 2.68464e-05
110 *1560:A3 *1560:B1 0.000139141
111 *1560:A3 *259:24 0.000179398
112 *1562:A *1616:B1 1.27474e-05
113 *1562:B *1616:B1 1.88656e-05
114 *1574:A2 *1616:B1 4.93711e-05
115 *1592:A1 *259:102 7.32853e-05
116 *1592:A2 *259:102 7.27704e-06
117 *1597:A2 *259:102 9.06961e-05
118 *1616:A2 *1616:B1 0.000102096
119 *1696:A1 *259:129 0.000439675
120 *1792:D *1656:A2 3.75725e-05
121 *1793:RESET_B *1654:A2 0.00013521
122 *1799:D *259:135 1.19028e-05
123 *1800:D *259:135 9.14222e-05
124 *1817:D *1560:B1 1.43439e-05
125 *153:41 *1616:B1 0.000154742
126 *153:43 *1575:B1 4.66108e-05
127 *153:63 *1575:B1 0.000112349
128 *153:63 *259:24 0.000163204
129 *153:76 *259:24 0.000930938
130 *153:95 *259:24 2.05056e-05
131 *162:89 *259:14 7.03219e-05
132 *162:95 *259:14 0.000313428
133 *162:95 *259:18 0.000318552
134 *163:61 *1652:A2 1.79098e-05
135 *163:134 *259:102 0
136 *166:71 *259:129 0.00021665
137 *166:73 *259:129 0.000149759
138 *166:104 *259:129 0.000125714
139 *193:16 *259:102 0.000272625
140 *193:29 *259:102 2.05056e-05
*RES
1 *1533:X *259:4 1.6 
2 *259:4 *259:14 12.67 
3 *259:14 *259:18 14.87 
4 *259:18 *259:24 14.855 
5 *259:24 *1575:B1 3.085 
6 *259:24 *1616:B1 16.0471 
7 *259:18 *1560:B1 6.51 
8 *259:14 *1534:B1 7.94 
9 *259:4 *259:102 44.79 
10 *259:102 *1604:C1 4.05 
11 *259:102 *259:129 24.1579 
12 *259:129 *259:133 3.135 
13 *259:133 *259:135 14.595 
14 *259:135 *259:141 6.155 
15 *259:141 *1654:A2 9.57 
16 *259:141 *1650:A2 6.465 
17 *259:135 *1652:A2 7.685 
18 *259:133 *1656:A2 13.55 
19 *259:129 *1648:A2 1.96 
*END

*D_NET *260 0.00105158
*CONN
*I *1542:A1_N I *D sky130_fd_sc_hd__o2bb2ai_1
*I *1534:X O *D sky130_fd_sc_hd__o31a_1
*CAP
1 *1542:A1_N 0.000243629
2 *1534:X 0.000243629
3 *1542:A1_N *1542:A2_N 0.000133489
4 *1542:A1_N *1542:B1 0.00012398
5 *1542:A1_N *266:155 0.000306852
6 *1542:A1_N *380:103 0
*RES
1 *1534:X *1542:A1_N 12.405 
*END

*D_NET *261 0.00139205
*CONN
*I *1536:B1 I *D sky130_fd_sc_hd__a21o_1
*I *1538:A3 I *D sky130_fd_sc_hd__a31oi_1
*I *1535:X O *D sky130_fd_sc_hd__xor2_1
*CAP
1 *1536:B1 3.21272e-05
2 *1538:A3 7.14697e-05
3 *1535:X 0.00030971
4 *261:10 0.000413307
5 *1538:A3 *266:155 0.000156621
6 *1538:A3 *483:36 1.01851e-05
7 *261:10 *1535:A 3.30434e-05
8 *1526:A2 *261:10 4.66108e-05
9 *1526:B2 *1536:B1 4.00541e-06
10 *1526:B2 *261:10 1.78928e-05
11 *1536:A1 *1538:A3 0.000134634
12 *1536:A1 *261:10 2.75229e-05
13 *161:68 *261:10 4.00217e-05
14 *250:6 *1538:A3 4.66108e-05
15 *256:8 *1538:A3 4.82919e-05
*RES
1 *1535:X *261:10 5.62 
2 *261:10 *1538:A3 7.94 
3 *261:10 *1536:B1 2.215 
*END

*D_NET *262 5.97061e-05
*CONN
*I *1539:A I *D sky130_fd_sc_hd__nand2_1
*I *1536:X O *D sky130_fd_sc_hd__a21o_1
*CAP
1 *1539:A 2.9853e-05
2 *1536:X 2.9853e-05
*RES
1 *1536:X *1539:A 3.65 
*END

*D_NET *263 0.0244312
*CONN
*I *1603:B1 I *D sky130_fd_sc_hd__a41o_1
*I *1599:B2 I *D sky130_fd_sc_hd__a2bb2o_1
*I *1598:B1 I *D sky130_fd_sc_hd__a31o_1
*I *1591:B1 I *D sky130_fd_sc_hd__a41oi_1
*I *1538:B1 I *D sky130_fd_sc_hd__a31oi_1
*I *1586:A2 I *D sky130_fd_sc_hd__a22oi_2
*I *1580:B1 I *D sky130_fd_sc_hd__a31o_1
*I *1585:B1 I *D sky130_fd_sc_hd__a21oi_1
*I *1645:A1_N I *D sky130_fd_sc_hd__a2bb2o_1
*I *1537:Y O *D sky130_fd_sc_hd__nor2_4
*CAP
1 *1603:B1 5.42378e-05
2 *1599:B2 0
3 *1598:B1 0.00030128
4 *1591:B1 1.36534e-05
5 *1538:B1 0.000639492
6 *1586:A2 1.90984e-05
7 *1580:B1 0.000301125
8 *1585:B1 0.000581746
9 *1645:A1_N 0.000670879
10 *1537:Y 0
11 *263:130 0.000441017
12 *263:106 0.00100708
13 *263:100 0.000895237
14 *263:92 0.00159549
15 *263:47 0.00101619
16 *263:43 0.000955045
17 *263:12 0.00186281
18 *263:4 0.00152898
19 *1538:B1 *1468:B1 0
20 *1538:B1 *1668:A1 0.000124726
21 *1538:B1 *278:113 0.000700106
22 *1538:B1 *278:123 0.000302368
23 *1538:B1 *312:10 0.000142186
24 *1538:B1 *390:42 0.000197269
25 *1538:B1 *483:36 8.43022e-05
26 *1580:B1 *1579:A1 0.000112087
27 *1580:B1 *1581:B1 0.000215049
28 *1580:B1 *303:133 8.48178e-05
29 *1580:B1 *306:12 3.09233e-05
30 *1585:B1 *1586:A1 0.000136947
31 *1585:B1 *1586:B1 2.68464e-05
32 *1585:B1 *1586:B2 4.82863e-05
33 *1585:B1 *1849:A 1.83756e-05
34 *1585:B1 *383:25 0.000110115
35 *1585:B1 *389:36 2.75145e-05
36 *1585:B1 *473:8 7.68414e-06
37 *1586:A2 *1586:A1 0
38 *1586:A2 *491:43 0
39 *1591:B1 *400:34 4.66108e-05
40 *1598:B1 *1598:A1 0.000354738
41 *1598:B1 *1599:B1 8.53113e-06
42 *1598:B1 *307:21 2.68721e-05
43 *1603:B1 *1603:A4 2.0514e-05
44 *1645:A1_N *349:16 0.000107382
45 *1645:A1_N *383:48 2.10433e-05
46 *263:12 *1658:A1 0
47 *263:12 *314:29 0
48 *263:43 *1499:B 0.000246579
49 *263:43 *1647:B1 1.88656e-05
50 *263:43 *1681:A0 0
51 *263:43 *1790:CLK 4.56773e-05
52 *263:43 *314:29 4.60561e-05
53 *263:43 *339:61 0.000166825
54 *263:43 *468:53 0.000111293
55 *263:43 *473:8 3.45391e-05
56 *263:43 *491:43 4.87465e-06
57 *263:47 *1586:A1 3.64998e-06
58 *263:47 *473:8 3.8194e-05
59 *263:92 *1427:A 0.00023081
60 *263:92 *1427:B 3.04704e-05
61 *263:92 *1504:A2 2.20014e-05
62 *263:92 *1603:A4 6.1357e-05
63 *263:92 *1608:C 9.16333e-06
64 *263:100 *1597:B1 0.00018471
65 *263:100 *1599:A1_N 5.4155e-06
66 *263:100 *317:18 0.000176523
67 *263:106 *1468:B1 0
68 *263:106 *1597:B1 5.42646e-05
69 *263:106 *309:10 5.64495e-05
70 *263:106 *317:18 8.73389e-06
71 *263:130 *1598:A2 8.23457e-05
72 *263:130 *1599:A1_N 3.00381e-05
73 *263:130 *1599:A2_N 0.000118081
74 *263:130 *317:18 8.73389e-06
75 *1462:A1 *263:92 0.000224344
76 *1477:A1 *263:106 1.73877e-05
77 *1477:B1 *263:106 0
78 *1482:A *263:43 6.63431e-05
79 *1504:A1 *263:92 1.84862e-05
80 *1504:A3 *263:92 0.000348222
81 *1511:A *263:106 0.000287655
82 *1511:B *263:100 0.000217324
83 *1511:C *263:100 0
84 *1526:B1 *1538:B1 0.000342551
85 *1537:A *263:92 5.33559e-05
86 *1537:B *263:92 4.88478e-05
87 *1581:A2 *1580:B1 0
88 *1592:B2 *1538:B1 7.43963e-05
89 *1601:B1 *263:100 0.000104623
90 *1603:A2 *1603:B1 4.82919e-05
91 *1603:A3 *1603:B1 0.000124007
92 *1603:A3 *263:100 0.000135912
93 *1608:A *263:92 4.66108e-05
94 *1647:B2 *263:43 2.65402e-05
95 *149:70 *1580:B1 0.000588662
96 *152:12 *263:92 0.000129099
97 *152:14 *263:92 4.66826e-05
98 *153:27 *263:43 0.000653992
99 *153:41 *263:43 0.000307823
100 *154:6 *263:92 9.91257e-05
101 *154:19 *263:92 0.000184849
102 *162:22 *1538:B1 0.000276552
103 *166:10 *263:92 0.000720892
104 *166:69 *263:92 0.000518388
105 *172:87 *263:92 4.9763e-06
106 *193:16 *263:100 0
107 *193:29 *1598:B1 0
108 *197:21 *1591:B1 4.66108e-05
109 *203:10 *263:106 0.00018101
110 *203:19 *263:106 4.44927e-05
111 *203:32 *1538:B1 2.42236e-05
112 *203:32 *263:106 0.000126679
113 *207:10 *263:43 8.0875e-05
114 *228:56 *263:100 0.000287107
115 *231:12 *263:92 0.000334995
116 *234:19 *263:100 7.97104e-05
117 *236:25 *263:100 8.09021e-06
118 *254:82 *1580:B1 0.000114517
119 *256:8 *1538:B1 0.000752668
120 *259:102 *263:100 0
121 *259:102 *263:106 0
*RES
1 *1537:Y *263:4 1.6 
2 *263:4 *263:12 3.5499 
3 *263:12 *1645:A1_N 5.53583 
4 *263:12 *263:43 21.1525 
5 *263:43 *263:47 1.845 
6 *263:47 *1585:B1 14.24 
7 *263:47 *1580:B1 14.375 
8 *263:43 *1586:A2 1.96 
9 *263:4 *263:92 27.345 
10 *263:92 *263:100 14.92 
11 *263:100 *263:106 10.55 
12 *263:106 *1538:B1 25.44 
13 *263:106 *1591:B1 4.05 
14 *263:100 *263:130 2.52 
15 *263:130 *1598:B1 10.205 
16 *263:130 *1599:B2 1.6 
17 *263:92 *1603:B1 3.085 
*END

*D_NET *264 0.000871355
*CONN
*I *1539:B I *D sky130_fd_sc_hd__nand2_1
*I *1538:Y O *D sky130_fd_sc_hd__a31oi_1
*CAP
1 *1539:B 0.000305689
2 *1538:Y 0.000305689
3 *1539:B *266:155 0
4 *1539:B *483:36 4.66108e-05
5 *1526:B1 *1539:B 1.91597e-05
6 *250:6 *1539:B 0.000134922
7 *251:16 *1539:B 5.92849e-05
*RES
1 *1538:Y *1539:B 11.7 
*END

*D_NET *265 0.00181854
*CONN
*I *1542:A2_N I *D sky130_fd_sc_hd__o2bb2ai_1
*I *1539:Y O *D sky130_fd_sc_hd__nand2_1
*CAP
1 *1542:A2_N 0.000479663
2 *1539:Y 0.000479663
3 *1542:A2_N *1542:B1 0
4 *1542:A2_N *1548:B1 0
5 *1542:A2_N *1661:A1 0
6 *1542:A1_N *1542:A2_N 0.000133489
7 *162:95 *1542:A2_N 6.90254e-05
8 *162:112 *1542:A2_N 7.9882e-05
9 *251:16 *1542:A2_N 0.000576815
*RES
1 *1539:Y *1542:A2_N 16.44 
*END

*D_NET *266 0.0320515
*CONN
*I *1541:B I *D sky130_fd_sc_hd__or2_1
*I *1551:B I *D sky130_fd_sc_hd__or3_1
*I *1571:B I *D sky130_fd_sc_hd__or3b_1
*I *1661:A3 I *D sky130_fd_sc_hd__a31o_1
*I *1659:A3 I *D sky130_fd_sc_hd__a31o_1
*I *1649:A3 I *D sky130_fd_sc_hd__a31o_1
*I *1653:A3 I *D sky130_fd_sc_hd__a31o_1
*I *1655:A3 I *D sky130_fd_sc_hd__a31o_1
*I *1651:A3 I *D sky130_fd_sc_hd__a31o_1
*I *1657:A3 I *D sky130_fd_sc_hd__a31o_1
*I *1540:X O *D sky130_fd_sc_hd__clkbuf_4
*CAP
1 *1541:B 2.21004e-05
2 *1551:B 1.86562e-05
3 *1571:B 0.000597711
4 *1661:A3 1.27183e-05
5 *1659:A3 0.00220529
6 *1649:A3 0
7 *1653:A3 0
8 *1655:A3 0.000114773
9 *1651:A3 0.00033549
10 *1657:A3 0.000101498
11 *1540:X 3.52036e-05
12 *266:161 0.000910323
13 *266:155 0.00124795
14 *266:123 0.00336523
15 *266:119 0.00265935
16 *266:79 0.000702361
17 *266:67 0.00126824
18 *266:51 0.00107837
19 *266:28 0.00256057
20 *266:6 0.00301228
21 *1571:B *1514:A 4.71087e-05
22 *1571:B *1572:A 4.07393e-05
23 *1571:B *1572:B 2.37415e-05
24 *1571:B *1841:A 9.32375e-05
25 *1571:B *463:23 0.00104158
26 *1571:B *463:29 0.00017696
27 *1651:A3 *1651:B1 0.000203178
28 *1651:A3 *1655:A1 1.82563e-05
29 *1651:A3 *1793:CLK 8.82557e-05
30 *1651:A3 *303:73 5.95927e-05
31 *1655:A3 *1651:B1 0
32 *1655:A3 *1655:A1 4.8525e-05
33 *1657:A3 *1648:B1 9.67081e-06
34 *1657:A3 *1649:B1 8.79601e-05
35 *1657:A3 *1657:A2 1.67131e-05
36 *1657:A3 *303:63 0
37 *1657:A3 *314:86 5.8023e-05
38 *1659:A3 *1647:C1 0
39 *1659:A3 *1661:B1 0.000276521
40 *1659:A3 *1824:A 0
41 *1659:A3 *303:145 0.000146128
42 *1659:A3 *385:45 0.000147257
43 *1661:A3 *1661:B1 2.24574e-05
44 *266:28 *1640:S 0.000327999
45 *266:28 *1648:B1 0.00033826
46 *266:28 *303:20 0
47 *266:28 *386:20 0
48 *266:28 *388:14 3.59942e-05
49 *266:28 *480:41 1.47615e-06
50 *266:28 *481:47 0
51 *266:28 *481:59 0
52 *266:28 *486:35 0
53 *266:28 *492:66 0
54 *266:51 *1649:B1 4.66108e-05
55 *266:51 *1677:A0 0.000154775
56 *266:51 *303:63 2.30292e-05
57 *266:67 *1677:A0 0.000494455
58 *266:67 *1687:A1 0
59 *266:67 *1687:S 0
60 *266:67 *1720:A 0.000108975
61 *266:67 *1777:CLK 0.000380208
62 *266:67 *1792:CLK 0
63 *266:67 *1834:A 0.00027665
64 *266:67 *1888:A 8.53113e-06
65 *266:67 *303:63 0.000290228
66 *266:67 *314:73 1.0124e-05
67 *266:67 *359:32 0
68 *266:67 *382:84 0.000188293
69 *266:67 *383:86 0
70 *266:79 *1654:B2 8.41014e-05
71 *266:79 *1655:A1 1.03833e-05
72 *266:79 *303:73 0.000376432
73 *266:79 *487:43 0.000124895
74 *266:119 *303:20 0
75 *266:119 *479:24 0.000138457
76 *266:119 *482:50 0.000245206
77 *266:119 *482:91 0.000214758
78 *266:119 *482:104 6.46607e-05
79 *266:123 *1647:C1 0
80 *266:123 *1661:B1 9.66678e-05
81 *266:123 *386:50 0
82 *266:155 *1534:A1 7.79767e-06
83 *266:155 *1535:A 0
84 *266:155 *381:54 0.000199734
85 *266:155 *390:14 0.000336899
86 *266:155 *479:24 9.90295e-05
87 *266:155 *483:36 4.32873e-05
88 *266:161 *1519:A 8.35118e-05
89 *1444:A2 *266:28 0.000123842
90 *1449:A1 *266:119 3.00381e-05
91 *1462:A1 *266:28 0
92 *1464:B1 *266:28 2.87867e-05
93 *1465:B2 *266:28 0
94 *1472:B2 *266:119 7.4027e-05
95 *1478:B1 *266:119 1.86688e-05
96 *1534:A2 *266:155 1.72577e-05
97 *1536:A1 *266:155 2.68721e-05
98 *1538:A3 *266:155 0.000156621
99 *1539:B *266:155 0
100 *1541:A *266:155 1.56428e-05
101 *1542:A1_N *266:155 0.000306852
102 *1551:A *1571:B 8.53011e-05
103 *1551:A *266:161 3.63576e-05
104 *1551:C *266:161 6.2139e-05
105 *1560:A2 *1571:B 2.86691e-05
106 *1560:A3 *1571:B 9.84609e-06
107 *1560:B1 *1571:B 4.97307e-05
108 *1571:A *1571:B 5.83121e-06
109 *1646:A *266:119 0.000170093
110 *1646:A *266:155 0.000157957
111 *1656:A2 *1657:A3 6.90381e-05
112 *1656:A2 *266:28 0.000248066
113 *1792:D *1657:A3 4.82863e-05
114 *1792:D *266:51 2.10034e-05
115 *1793:D *1651:A3 4.04214e-05
116 *1793:D *1655:A3 5.06182e-05
117 *1793:RESET_B *266:79 4.11729e-05
118 *1816:D *1571:B 8.85669e-06
119 *148:16 *266:28 0.000281006
120 *149:70 *1659:A3 8.76348e-06
121 *149:104 *1571:B 1.4174e-05
122 *149:126 *266:155 0.000161747
123 *161:66 *266:155 0.000706307
124 *161:86 *266:155 7.21296e-06
125 *162:36 *266:123 0
126 *162:126 *1571:B 0.000752281
127 *163:49 *1659:A3 0
128 *170:31 *266:28 1.53032e-05
129 *170:50 *266:28 0
130 *173:91 *266:119 0.000196154
131 *173:91 *266:155 0.000120452
132 *174:10 *266:28 2.56866e-05
133 *238:10 *1661:A3 4.11685e-05
134 *238:10 *266:6 1.63139e-05
135 *238:10 *266:119 8.24507e-05
136 *246:8 *266:161 2.50267e-05
137 *251:16 *266:155 0
138 *252:12 *266:155 0
139 *256:21 *266:155 0
*RES
1 *1540:X *266:6 2.05 
2 *266:6 *266:28 23.2254 
3 *266:28 *1657:A3 6.075 
4 *266:28 *266:51 3.95 
5 *266:51 *266:67 26.72 
6 *266:67 *266:79 8.4275 
7 *266:79 *1651:A3 9.9825 
8 *266:79 *1655:A3 5.8125 
9 *266:67 *1653:A3 1.6 
10 *266:51 *1649:A3 1.6 
11 *266:6 *266:119 14.7875 
12 *266:119 *266:123 2.40253 
13 *266:123 *1659:A3 9.10517 
14 *266:123 *1661:A3 4.5875 
15 *266:119 *266:155 25.6925 
16 *266:155 *266:161 5.055 
17 *266:161 *1571:B 18.625 
18 *266:161 *1551:B 1.96 
19 *266:155 *1541:B 1.96 
*END

*D_NET *267 0.000512806
*CONN
*I *1542:B1 I *D sky130_fd_sc_hd__o2bb2ai_1
*I *1541:X O *D sky130_fd_sc_hd__or2_1
*CAP
1 *1542:B1 0.000194413
2 *1541:X 0.000194413
3 *1542:A1_N *1542:B1 0.00012398
4 *1542:A2_N *1542:B1 0
*RES
1 *1541:X *1542:B1 9.975 
*END

*D_NET *268 0.000986767
*CONN
*I *1544:B1_N I *D sky130_fd_sc_hd__o21bai_2
*I *1543:Y O *D sky130_fd_sc_hd__nand2_1
*CAP
1 *1544:B1_N 0.000317316
2 *1543:Y 0.000317316
3 *1544:B1_N *269:12 4.66108e-05
4 *1520:A1 *1544:B1_N 4.99619e-05
5 *1520:A2 *1544:B1_N 1.80064e-05
6 *1520:B1 *1544:B1_N 2.05056e-05
7 *1543:B *1544:B1_N 8.65961e-05
8 *165:29 *1544:B1_N 0.000130453
*RES
1 *1543:Y *1544:B1_N 8.495 
*END

*D_NET *269 0.0028778
*CONN
*I *1547:C1 I *D sky130_fd_sc_hd__o211ai_1
*I *1545:A2 I *D sky130_fd_sc_hd__a21oi_1
*I *1559:B1 I *D sky130_fd_sc_hd__a22o_1
*I *1544:Y O *D sky130_fd_sc_hd__o21bai_2
*CAP
1 *1547:C1 0.000114986
2 *1545:A2 0
3 *1559:B1 0.000140964
4 *1544:Y 0.000122261
5 *269:31 0.000449969
6 *269:12 0.000598208
7 *1547:C1 *1550:A1 0.000162311
8 *269:12 *1742:A 1.7635e-05
9 *269:12 *389:157 0
10 *269:31 *1550:B1_N 0.000185858
11 *1522:A *269:31 0.00013661
12 *1523:A1 *269:31 1.12578e-05
13 *1523:A2 *269:12 7.42728e-05
14 *1523:A2 *269:31 7.60965e-05
15 *1523:B1_N *269:31 1.03423e-05
16 *1544:B1_N *269:12 4.66108e-05
17 *1545:A1 *269:31 1.0129e-05
18 *1545:B1 *1547:C1 2.89963e-05
19 *1549:A3 *269:12 6.63219e-06
20 *1574:A1 *1559:B1 5.29016e-05
21 *165:10 *1559:B1 1.74678e-05
22 *165:10 *269:12 5.91322e-05
23 *165:29 *269:12 4.82863e-05
24 *245:16 *1547:C1 0.000102275
25 *246:16 *269:31 1.26626e-05
26 *250:6 *269:31 0.000312964
27 *254:99 *1559:B1 6.30071e-05
28 *254:99 *269:12 1.59617e-05
*RES
1 *1544:Y *269:12 8.45 
2 *269:12 *1559:B1 4.15 
3 *269:12 *269:31 11.17 
4 *269:31 *1545:A2 1.6 
5 *269:31 *1547:C1 4.495 
*END

*D_NET *270 0.000787023
*CONN
*I *1550:A1 I *D sky130_fd_sc_hd__o21bai_1
*I *1545:Y O *D sky130_fd_sc_hd__a21oi_1
*CAP
1 *1550:A1 0.000206789
2 *1545:Y 0.000206789
3 *1545:A1 *1550:A1 2.37414e-05
4 *1545:B1 *1550:A1 8.34281e-06
5 *1547:C1 *1550:A1 0.000162311
6 *245:12 *1550:A1 0.000116165
7 *246:10 *1550:A1 6.28843e-05
*RES
1 *1545:Y *1550:A1 10.7325 
*END

*D_NET *271 0.00151464
*CONN
*I *1547:A2 I *D sky130_fd_sc_hd__o211ai_1
*I *1546:X O *D sky130_fd_sc_hd__a31o_1
*CAP
1 *1547:A2 0.000417303
2 *1546:X 0.000417303
3 *1547:A2 *1521:A1 1.31735e-05
4 *1547:A2 *1661:A1 0
5 *1521:A2 *1547:A2 7.23602e-05
6 *1521:A3 *1547:A2 7.4027e-05
7 *151:89 *1547:A2 8.40213e-05
8 *246:16 *1547:A2 0.00043645
9 *248:17 *1547:A2 0
*RES
1 *1546:X *1547:A2 14.985 
*END

*D_NET *272 0.000383511
*CONN
*I *1548:B1 I *D sky130_fd_sc_hd__o21ai_1
*I *1547:Y O *D sky130_fd_sc_hd__o211ai_1
*CAP
1 *1548:B1 0.00012415
2 *1547:Y 0.00012415
3 *1548:B1 *1661:A1 0.00013521
4 *1542:A2_N *1548:B1 0
*RES
1 *1547:Y *1548:B1 9.285 
*END

*D_NET *273 0.000504628
*CONN
*I *1550:A2 I *D sky130_fd_sc_hd__o21bai_1
*I *1548:Y O *D sky130_fd_sc_hd__o21ai_1
*CAP
1 *1550:A2 8.38347e-05
2 *1548:Y 8.38347e-05
3 *1550:A2 *381:54 6.1357e-05
4 *1548:A1 *1550:A2 8.49205e-05
5 *153:95 *1550:A2 0.000160641
6 *153:104 *1550:A2 3.00399e-05
*RES
1 *1548:Y *1550:A2 5.75 
*END

*D_NET *274 0.00139472
*CONN
*I *1550:B1_N I *D sky130_fd_sc_hd__o21bai_1
*I *1549:X O *D sky130_fd_sc_hd__a31o_1
*CAP
1 *1550:B1_N 0.000409656
2 *1549:X 0.000409656
3 *1550:B1_N *278:10 0
4 *1545:A1 *1550:B1_N 0.000139238
5 *246:10 *1550:B1_N 5.85076e-05
6 *250:6 *1550:B1_N 0.000191802
7 *269:31 *1550:B1_N 0.000185858
*RES
1 *1549:X *1550:B1_N 14.175 
*END

*D_NET *275 0.0011628
*CONN
*I *1552:A I *D sky130_fd_sc_hd__nand2_1
*I *1550:Y O *D sky130_fd_sc_hd__o21bai_1
*CAP
1 *1552:A 0.000382754
2 *1550:Y 0.000382754
3 *1552:A *1519:A 0
4 *1552:A *1552:B 3.97492e-05
5 *1552:A *1561:A1 3.89366e-05
6 *1552:A *1764:A 4.55864e-06
7 *1552:A *1841:A 0
8 *1552:A *278:10 0
9 *1551:A *1552:A 4.61701e-06
10 *1551:C *1552:A 2.09974e-05
11 *1560:B1 *1552:A 0
12 *1818:D *1552:A 7.09895e-05
13 *153:95 *1552:A 8.65905e-05
14 *245:12 *1552:A 0
15 *246:10 *1552:A 0.000130849
*RES
1 *1550:Y *1552:A 13.71 
*END

*D_NET *276 0.000662516
*CONN
*I *1552:B I *D sky130_fd_sc_hd__nand2_1
*I *1551:X O *D sky130_fd_sc_hd__or3_1
*CAP
1 *1552:B 0.000123199
2 *1551:X 0.000123199
3 *1552:B *1519:A 1.38207e-05
4 *1552:B *380:69 4.77769e-05
5 *1514:B *1552:B 0.000193289
6 *1552:A *1552:B 3.97492e-05
7 *1817:RESET_B *1552:B 8.25446e-05
8 *245:12 *1552:B 3.89366e-05
*RES
1 *1551:X *1552:B 10.77 
*END

*D_NET *277 0.00226555
*CONN
*I *1596:A I *D sky130_fd_sc_hd__clkbuf_4
*I *1658:B1 I *D sky130_fd_sc_hd__a22o_1
*I *1660:B1 I *D sky130_fd_sc_hd__a22o_1
*I *1554:A I *D sky130_fd_sc_hd__clkbuf_4
*I *1553:Y O *D sky130_fd_sc_hd__nor2_1
*CAP
1 *1596:A 0.000114251
2 *1658:B1 0.000105605
3 *1660:B1 3.34452e-05
4 *1554:A 0
5 *1553:Y 7.69073e-05
6 *277:17 0.000346671
7 *277:6 0.000398779
8 *1596:A *1732:A 0
9 *1596:A *278:10 0
10 *1658:B1 *1658:A1 0.000168198
11 *1658:B1 *1661:B1 3.69766e-05
12 *1660:B1 *1660:A1 3.65014e-05
13 *1660:B1 *1661:B1 4.77719e-05
14 *277:6 *1553:B 2.75145e-05
15 *277:17 *1658:A1 0.000155862
16 *1553:A *277:6 0.000235573
17 *1553:A *277:17 0.000119756
18 *1660:B2 *277:17 0.000133875
19 *163:22 *277:17 0
20 *238:10 *1596:A 0.000227857
*RES
1 *1553:Y *277:6 3.775 
2 *277:6 *1554:A 1.6 
3 *277:6 *277:17 6.065 
4 *277:17 *1660:B1 4.41 
5 *277:17 *1658:B1 5.745 
6 *277:6 *1596:A 8.255 
*END

*D_NET *278 0.0284715
*CONN
*I *1706:B1 I *D sky130_fd_sc_hd__a21oi_1
*I *1595:A2 I *D sky130_fd_sc_hd__a22o_1
*I *1705:A2 I *D sky130_fd_sc_hd__a21bo_1
*I *1696:B1 I *D sky130_fd_sc_hd__a22o_1
*I *1605:A2 I *D sky130_fd_sc_hd__a21o_1
*I *1561:A2 I *D sky130_fd_sc_hd__a22o_1
*I *1583:A2_N I *D sky130_fd_sc_hd__o2bb2ai_1
*I *1587:B1 I *D sky130_fd_sc_hd__a2bb2o_1
*I *1617:A2 I *D sky130_fd_sc_hd__a21bo_1
*I *1576:A2 I *D sky130_fd_sc_hd__a22o_1
*I *1554:X O *D sky130_fd_sc_hd__clkbuf_4
*CAP
1 *1706:B1 1.17533e-05
2 *1595:A2 1.65033e-05
3 *1705:A2 5.74583e-05
4 *1696:B1 0
5 *1605:A2 0.000155282
6 *1561:A2 0
7 *1583:A2_N 0
8 *1587:B1 0
9 *1617:A2 0.000552785
10 *1576:A2 0
11 *1554:X 0.000985452
12 *278:125 0.000328555
13 *278:123 0.00110151
14 *278:113 0.00145095
15 *278:111 0.00147489
16 *278:71 0.00106503
17 *278:61 0.00136522
18 *278:42 0.00196087
19 *278:20 0.00128672
20 *278:10 0.00206374
21 *1595:A2 *1595:A1 2.49909e-05
22 *1595:A2 *1812:CLK 4.66108e-05
23 *1605:A2 *1605:A1 7.4027e-05
24 *1605:A2 *1605:B1 0.000124888
25 *1605:A2 *1671:B1 6.16495e-05
26 *1605:A2 *359:18 9.70252e-05
27 *1617:A2 *1617:A1 8.23457e-05
28 *1617:A2 *1754:A 4.77807e-05
29 *1617:A2 *1848:A 0.000404402
30 *1617:A2 *1857:A 0.000211348
31 *1617:A2 *383:48 0
32 *1617:A2 *385:51 7.86401e-05
33 *1617:A2 *481:41 0.000129089
34 *1705:A2 *1705:A1 2.75229e-05
35 *1705:A2 *1705:B1_N 0.000160641
36 *1706:B1 *1771:CLK 2.75145e-05
37 *278:10 *1561:B1 0
38 *278:10 *1661:B1 3.94062e-05
39 *278:10 *1732:A 0.00044194
40 *278:10 *1825:A 1.89738e-05
41 *278:20 *1561:A1 0.000128954
42 *278:42 *1561:B1 0.000135786
43 *278:42 *1576:A1 6.75536e-05
44 *278:42 *1576:B1 7.92778e-05
45 *278:42 *1576:B2 0
46 *278:42 *288:25 7.06865e-05
47 *278:42 *381:54 0.00112458
48 *278:61 *1576:B1 4.66108e-05
49 *278:61 *1642:A0 0.00010596
50 *278:61 *1659:A1 0
51 *278:61 *1681:A0 0.000592102
52 *278:61 *462:23 6.81237e-05
53 *278:61 *474:21 0.000163175
54 *278:61 *474:57 8.05167e-05
55 *278:71 *1583:B2 0
56 *278:71 *1642:A0 0.00101135
57 *278:71 *1659:A1 0
58 *278:71 *1667:A2 4.99619e-05
59 *278:71 *1848:A 9.50342e-06
60 *278:71 *303:145 4.9968e-05
61 *278:71 *306:12 0.000158066
62 *278:71 *383:31 2.25075e-05
63 *278:71 *385:45 0.000230303
64 *278:71 *385:51 0.000197052
65 *278:111 *381:56 0.000964956
66 *278:111 *466:14 0.000194921
67 *278:111 *466:18 0.000452956
68 *278:113 *408:28 0
69 *278:123 *1593:B 2.01504e-05
70 *278:123 *312:10 0.000381892
71 *278:123 *359:18 0.000360618
72 *278:123 *408:28 0
73 *278:123 *472:24 0.000309791
74 *278:125 *1671:B1 6.51234e-06
75 *278:125 *359:18 0.0002214
76 *1437:C1 *1706:B1 4.82863e-05
77 *1517:A1 *278:10 0
78 *1520:A1 *278:10 0.000103911
79 *1522:B *278:10 0.000166711
80 *1523:A1 *278:10 4.55801e-05
81 *1538:B1 *278:113 0.000700106
82 *1538:B1 *278:123 0.000302368
83 *1545:A1 *278:10 0
84 *1550:B1_N *278:10 0
85 *1552:A *278:10 0
86 *1557:A2 *278:10 0.000136604
87 *1560:A3 *278:42 0
88 *1574:A1 *278:42 0
89 *1596:A *278:10 0
90 *1696:A1 *1605:A2 8.7152e-06
91 *1696:A1 *278:125 1.88602e-05
92 *1696:A2 *278:123 0.000900313
93 *1696:A2 *278:125 0.000557812
94 *149:70 *278:42 3.86607e-05
95 *159:41 *278:10 5.27922e-05
96 *162:22 *278:113 5.13668e-05
97 *162:36 *278:10 2.47102e-05
98 *162:89 *278:111 5.71408e-05
99 *162:89 *278:113 7.1635e-05
100 *163:134 *278:111 7.4027e-05
101 *238:10 *278:10 0
102 *244:10 *278:10 0
103 *246:10 *278:10 0
104 *247:19 *278:10 4.54719e-05
105 *254:82 *278:61 0.000464729
106 *256:59 *278:123 0.000271125
107 *256:68 *278:123 0.000194287
108 *257:10 *278:123 4.66108e-05
109 *259:14 *278:111 9.88165e-05
110 *259:18 *278:20 4.71087e-05
111 *259:18 *278:111 0.000576328
112 *259:24 *278:10 8.66313e-05
113 *259:102 *278:111 0
114 *259:102 *278:113 0
115 *259:102 *278:123 0
*RES
1 *1554:X *278:10 25.595 
2 *278:10 *278:20 3.45 
3 *278:20 *278:42 25.235 
4 *278:42 *1576:A2 1.6 
5 *278:42 *278:61 21.825 
6 *278:61 *278:71 18.535 
7 *278:71 *1617:A2 15.945 
8 *278:71 *1587:B1 3.6 
9 *278:61 *1583:A2_N 3.6 
10 *278:20 *1561:A2 1.6 
11 *278:10 *278:111 22.535 
12 *278:111 *278:113 12.09 
13 *278:113 *278:123 27.655 
14 *278:123 *278:125 6.735 
15 *278:125 *1605:A2 7.53 
16 *278:125 *1696:B1 3.6 
17 *278:123 *1705:A2 5.085 
18 *278:113 *1595:A2 4.05 
19 *278:111 *1706:B1 4.05 
*END

*D_NET *279 0.00805965
*CONN
*I *1558:A1 I *D sky130_fd_sc_hd__a41o_1
*I *1573:A1 I *D sky130_fd_sc_hd__a211o_1
*I *1584:B I *D sky130_fd_sc_hd__or2_1
*I *1585:A1 I *D sky130_fd_sc_hd__a21oi_1
*I *1578:A I *D sky130_fd_sc_hd__nand2_1
*I *1555:Y O *D sky130_fd_sc_hd__nand2_2
*CAP
1 *1558:A1 7.58519e-05
2 *1573:A1 0.000482294
3 *1584:B 0
4 *1585:A1 0.000207965
5 *1578:A 3.34794e-05
6 *1555:Y 0.000134925
7 *279:55 0.00104985
8 *279:23 0.00028444
9 *279:8 0.000343761
10 *279:6 0.000860431
11 *1558:A1 *1558:B1 4.77719e-05
12 *1573:A1 *286:16 1.82559e-05
13 *1573:A1 *288:10 9.78811e-06
14 *1578:A *1659:B1 4.77769e-05
15 *1578:A *299:6 1.79098e-05
16 *1585:A1 *383:25 0
17 *1585:A1 *485:22 8.60492e-05
18 *279:6 *1658:B2 7.44125e-05
19 *279:6 *1659:B1 0.000441295
20 *279:6 *485:22 0.000159165
21 *279:8 *1579:A2 5.93408e-05
22 *279:8 *1659:B1 0.000953457
23 *279:8 *299:6 6.34483e-05
24 *279:8 *485:22 0.000489681
25 *279:23 *474:25 9.05569e-05
26 *279:55 *1742:A 0
27 *279:55 *389:10 0
28 *279:55 *389:157 4.9968e-05
29 *1436:A *279:6 8.04712e-05
30 *1512:B *279:23 8.33066e-06
31 *1513:B *279:23 0.000163735
32 *1516:A *279:55 0.000325951
33 *1516:C *1558:A1 0.00011099
34 *1516:C *1573:A1 2.50602e-05
35 *1516:C *279:55 2.81894e-05
36 *1516:D *1573:A1 0.000173867
37 *1517:B1 *1573:A1 0.000267526
38 *1558:A4 *1558:A1 4.77719e-05
39 *1578:B *1585:A1 5.27104e-05
40 *1579:B1 *279:8 8.41384e-05
41 *153:41 *1573:A1 7.12055e-05
42 *159:41 *279:55 4.41506e-05
43 *161:20 *279:8 3.67007e-05
44 *162:36 *279:6 5.56397e-05
45 *162:38 *279:6 1.91597e-05
46 *163:111 *279:6 0.000174697
47 *200:54 *279:55 8.35068e-05
48 *205:18 *279:6 3.75203e-05
49 *205:24 *279:6 8.64599e-05
50 *239:49 *279:55 0
*RES
1 *1555:Y *279:6 7.57 
2 *279:6 *279:8 9.075 
3 *279:8 *1578:A 2.41 
4 *279:8 *279:23 6.145 
5 *279:23 *1585:A1 9.41 
6 *279:23 *1584:B 1.6 
7 *279:6 *279:55 14.34 
8 *279:55 *1573:A1 14.3462 
9 *279:55 *1558:A1 5.43 
*END

*D_NET *280 0.00320264
*CONN
*I *1564:B1_N I *D sky130_fd_sc_hd__a21boi_1
*I *1558:A2 I *D sky130_fd_sc_hd__a41o_1
*I *1573:A2 I *D sky130_fd_sc_hd__a211o_1
*I *1556:X O *D sky130_fd_sc_hd__and2_1
*CAP
1 *1564:B1_N 5.84761e-05
2 *1558:A2 0.000123204
3 *1573:A2 0.000346575
4 *1556:X 0
5 *280:12 0.000827125
6 *280:4 0.000415821
7 *1564:B1_N *1565:A2 0.000195437
8 *1564:B1_N *385:100 5.18662e-05
9 *1573:A2 *1565:A1 1.91597e-05
10 *1573:A2 *1565:A2 6.97034e-05
11 *1573:A2 *286:16 0.000166762
12 *280:12 *1559:B2 8.30853e-06
13 *280:12 *1565:A2 0.000565224
14 *280:12 *1679:A0 2.12295e-05
15 *280:12 *389:10 1.30589e-05
16 *1516:A *1564:B1_N 5.08353e-05
17 *1516:A *280:12 3.04704e-05
18 *1556:B *280:12 1.14169e-05
19 *1558:A4 *1558:A2 0.000197826
20 *241:12 *280:12 0
21 *242:29 *1573:A2 3.0145e-05
*RES
1 *1556:X *280:4 1.6 
2 *280:4 *280:12 11.275 
3 *280:12 *1573:A2 6.115 
4 *280:12 *1558:A2 4.15 
5 *280:4 *1564:B1_N 3.79 
*END

*D_NET *281 0.000776568
*CONN
*I *1558:B1 I *D sky130_fd_sc_hd__a41o_1
*I *1557:X O *D sky130_fd_sc_hd__a21o_1
*CAP
1 *1558:B1 0.000265116
2 *1557:X 0.000265116
3 *1558:B1 *389:157 0
4 *1558:A1 *1558:B1 4.77719e-05
5 *1558:A3 *1558:B1 4.66108e-05
6 *1558:A4 *1558:B1 5.63513e-05
7 *173:107 *1558:B1 9.21008e-05
8 *242:29 *1558:B1 3.50152e-06
*RES
1 *1557:X *1558:B1 11.55 
*END

*D_NET *282 0.000672186
*CONN
*I *1559:B2 I *D sky130_fd_sc_hd__a22o_1
*I *1558:X O *D sky130_fd_sc_hd__a41o_1
*CAP
1 *1559:B2 0.00016451
2 *1558:X 0.00016451
3 *1559:B2 *1438:A1 5.53249e-06
4 *1559:B2 *1679:A0 3.69251e-05
5 *165:10 *1559:B2 0.00017446
6 *254:99 *1559:B2 0.000117939
7 *280:12 *1559:B2 8.30853e-06
*RES
1 *1558:X *1559:B2 11.445 
*END

*D_NET *283 0.000771414
*CONN
*I *1561:B1 I *D sky130_fd_sc_hd__a22o_1
*I *1559:X O *D sky130_fd_sc_hd__a22o_1
*CAP
1 *1561:B1 0.000315731
2 *1559:X 0.000315731
3 *1561:B1 *389:157 0
4 *254:99 *1561:B1 4.1652e-06
5 *278:10 *1561:B1 0
6 *278:42 *1561:B1 0.000135786
*RES
1 *1559:X *1561:B1 12.915 
*END

*D_NET *284 0.000343443
*CONN
*I *1561:B2 I *D sky130_fd_sc_hd__a22o_1
*I *1560:X O *D sky130_fd_sc_hd__o31a_1
*CAP
1 *1561:B2 0.000169842
2 *1560:X 0.000169842
3 *149:118 *1561:B2 3.75882e-06
*RES
1 *1560:X *1561:B2 9.48 
*END

*D_NET *285 0.00157268
*CONN
*I *1566:A1 I *D sky130_fd_sc_hd__a21oi_1
*I *1567:C I *D sky130_fd_sc_hd__nand3_1
*I *1562:X O *D sky130_fd_sc_hd__or3b_1
*CAP
1 *1566:A1 0.000129184
2 *1567:C 0
3 *1562:X 0.000216292
4 *285:12 0.000345476
5 *1566:A1 *1567:A 0.00032104
6 *1566:A1 *1568:B1 9.0172e-05
7 *1566:A1 *288:25 4.89395e-05
8 *285:12 *1438:A1 0.000302839
9 *285:12 *1567:A 1.91597e-05
10 *285:12 *1568:B1 4.66108e-05
11 *1567:B *1566:A1 5.19006e-06
12 *1569:B1 *1566:A1 4.77807e-05
*RES
1 *1562:X *285:12 9.725 
2 *285:12 *1567:C 1.6 
3 *285:12 *1566:A1 5.17 
*END

*D_NET *286 0.00120977
*CONN
*I *1565:A1 I *D sky130_fd_sc_hd__o21ai_2
*I *1573:C1 I *D sky130_fd_sc_hd__a211o_1
*I *1563:X O *D sky130_fd_sc_hd__o21a_1
*CAP
1 *1565:A1 1.50419e-05
2 *1573:C1 0
3 *1563:X 0.000233721
4 *286:16 0.000248763
5 *286:16 *1563:A1 0.000194694
6 *286:16 *288:10 9.96932e-05
7 *286:16 *474:66 9.70285e-05
8 *1563:B1 *286:16 2.42043e-05
9 *1573:A1 *286:16 1.82559e-05
10 *1573:A2 *1565:A1 1.91597e-05
11 *1573:A2 *286:16 0.000166762
12 *242:29 *1565:A1 4.66108e-05
13 *242:29 *286:16 4.5835e-05
*RES
1 *1563:X *286:16 7.39 
2 *286:16 *1573:C1 1.6 
3 *286:16 *1565:A1 2.05 
*END

*D_NET *287 0.00237007
*CONN
*I *1565:A2 I *D sky130_fd_sc_hd__o21ai_2
*I *1564:Y O *D sky130_fd_sc_hd__a21boi_1
*CAP
1 *1565:A2 0.000447323
2 *1564:Y 0.000447323
3 *1565:A2 *1679:A0 0.000341555
4 *1565:A2 *1824:A 3.43387e-05
5 *1565:A2 *385:100 5.19637e-05
6 *1565:A2 *389:10 7.23533e-05
7 *1516:B *1565:A2 4.46808e-07
8 *1556:B *1565:A2 2.20725e-05
9 *1564:B1_N *1565:A2 0.000195437
10 *1573:A2 *1565:A2 6.97034e-05
11 *242:29 *1565:A2 0.000122325
12 *280:12 *1565:A2 0.000565224
*RES
1 *1564:Y *1565:A2 17.61 
*END

*D_NET *288 0.00391152
*CONN
*I *1567:A I *D sky130_fd_sc_hd__nand3_1
*I *1566:A2 I *D sky130_fd_sc_hd__a21oi_1
*I *1574:B1 I *D sky130_fd_sc_hd__a22o_1
*I *1565:Y O *D sky130_fd_sc_hd__o21ai_2
*CAP
1 *1567:A 0.000322639
2 *1566:A2 0
3 *1574:B1 0
4 *1565:Y 0.000232429
5 *288:25 0.000567007
6 *288:10 0.000476797
7 *1567:A *1568:B1 7.50406e-05
8 *1567:A *1569:A1 4.87939e-05
9 *1567:A *1570:B1 9.12494e-06
10 *288:10 *1574:B2 0.000100146
11 *288:10 *474:66 0.000265271
12 *288:25 *1568:B1 8.64599e-05
13 *288:25 *1570:A1 1.2861e-05
14 *1566:A1 *1567:A 0.00032104
15 *1566:A1 *288:25 4.89395e-05
16 *1566:B1 *1567:A 2.5684e-06
17 *1567:B *1567:A 9.13949e-06
18 *1568:A1 *288:25 1.74776e-05
19 *1568:A2 *288:25 0.000113668
20 *1573:A1 *288:10 9.78811e-06
21 *149:70 *288:25 3.77681e-05
22 *149:85 *288:25 0
23 *153:41 *288:10 0.000393128
24 *153:41 *288:25 0.000180668
25 *161:20 *288:10 4.90031e-05
26 *161:33 *288:10 0.000157714
27 *241:40 *1567:A 2.90115e-05
28 *242:29 *288:10 0.000155497
29 *278:42 *288:25 7.06865e-05
30 *285:12 *1567:A 1.91597e-05
31 *286:16 *288:10 9.96932e-05
*RES
1 *1565:Y *288:10 11.16 
2 *288:10 *1574:B1 3.6 
3 *288:10 *288:25 7.43 
4 *288:25 *1566:A2 1.6 
5 *288:25 *1567:A 10.835 
*END

*D_NET *289 0.00104425
*CONN
*I *1570:A1 I *D sky130_fd_sc_hd__o21ai_1
*I *1566:Y O *D sky130_fd_sc_hd__a21oi_1
*CAP
1 *1570:A1 0.000253033
2 *1566:Y 0.000253033
3 *1570:A1 *1568:B1 1.43622e-05
4 *1570:A1 *1570:A2 0.000286102
5 *1570:A1 *1681:A0 0
6 *1570:A1 *462:19 0.000111037
7 *1566:B1 *1570:A1 8.52972e-05
8 *1568:A1 *1570:A1 1.14192e-05
9 *1568:A2 *1570:A1 7.18795e-06
10 *1571:A *1570:A1 9.92098e-06
11 *288:25 *1570:A1 1.2861e-05
*RES
1 *1566:Y *1570:A1 13.2075 
*END

*D_NET *290 0.00100271
*CONN
*I *1568:B1 I *D sky130_fd_sc_hd__o21ai_1
*I *1567:Y O *D sky130_fd_sc_hd__nand3_1
*CAP
1 *1568:B1 0.000131833
2 *1567:Y 0.000131833
3 *1566:A1 *1568:B1 9.0172e-05
4 *1566:B1 *1568:B1 0.00037746
5 *1567:A *1568:B1 7.50406e-05
6 *1569:B1 *1568:B1 4.89395e-05
7 *1570:A1 *1568:B1 1.43622e-05
8 *285:12 *1568:B1 4.66108e-05
9 *288:25 *1568:B1 8.64599e-05
*RES
1 *1567:Y *1568:B1 8.15 
*END

*D_NET *291 0.000661007
*CONN
*I *1570:A2 I *D sky130_fd_sc_hd__o21ai_1
*I *1568:Y O *D sky130_fd_sc_hd__o21ai_1
*CAP
1 *1570:A2 0.000166652
2 *1568:Y 0.000166652
3 *1570:A2 *1570:B1 0
4 *1570:A2 *1572:A 4.16007e-05
5 *1570:A1 *1570:A2 0.000286102
*RES
1 *1568:Y *1570:A2 10.56 
*END

*D_NET *292 0.000761571
*CONN
*I *1570:B1 I *D sky130_fd_sc_hd__o21ai_1
*I *1569:X O *D sky130_fd_sc_hd__o31a_1
*CAP
1 *1570:B1 0.000266847
2 *1569:X 0.000266847
3 *1570:B1 *1569:A1 4.3584e-05
4 *1570:B1 *1572:A 6.48667e-05
5 *1570:B1 *380:67 6.43093e-05
6 *1570:B1 *463:29 4.59919e-05
7 *1567:A *1570:B1 9.12494e-06
8 *1570:A2 *1570:B1 0
*RES
1 *1569:X *1570:B1 12.105 
*END

*D_NET *293 0.000492955
*CONN
*I *1572:A I *D sky130_fd_sc_hd__nand2_1
*I *1570:Y O *D sky130_fd_sc_hd__o21ai_1
*CAP
1 *1572:A 0.000160067
2 *1570:Y 0.000160067
3 *1572:A *1514:A 4.87465e-06
4 *1572:A *1572:B 1.16261e-05
5 *1572:A *380:67 4.40693e-06
6 *1570:A2 *1572:A 4.16007e-05
7 *1570:B1 *1572:A 6.48667e-05
8 *1571:B *1572:A 4.07393e-05
9 *1816:D *1572:A 4.7072e-06
*RES
1 *1570:Y *1572:A 10.185 
*END

*D_NET *294 0.000146877
*CONN
*I *1572:B I *D sky130_fd_sc_hd__nand2_1
*I *1571:X O *D sky130_fd_sc_hd__or3b_1
*CAP
1 *1572:B 3.27081e-05
2 *1571:X 3.27081e-05
3 *1571:A *1572:B 1.72577e-05
4 *1571:B *1572:B 2.37415e-05
5 *1572:A *1572:B 1.16261e-05
6 *1816:D *1572:B 2.88357e-05
*RES
1 *1571:X *1572:B 4.265 
*END

*D_NET *295 0.000844157
*CONN
*I *1574:B2 I *D sky130_fd_sc_hd__a22o_1
*I *1573:X O *D sky130_fd_sc_hd__a211o_1
*CAP
1 *1574:B2 0.00014558
2 *1573:X 0.00014558
3 *1563:B1 *1574:B2 2.49909e-05
4 *149:70 *1574:B2 0.000311008
5 *161:33 *1574:B2 0.000116853
6 *288:10 *1574:B2 0.000100146
*RES
1 *1573:X *1574:B2 11.325 
*END

*D_NET *296 0.000917896
*CONN
*I *1576:B1 I *D sky130_fd_sc_hd__a22o_1
*I *1574:X O *D sky130_fd_sc_hd__a22o_1
*CAP
1 *1576:B1 0.000280644
2 *1574:X 0.000280644
3 *1576:B1 *1576:A1 1.47256e-05
4 *1576:B1 *1576:B2 1.24244e-05
5 *1562:A *1576:B1 0
6 *1574:A1 *1576:B1 4.38278e-05
7 *1815:D *1576:B1 0.000159741
8 *278:42 *1576:B1 7.92778e-05
9 *278:61 *1576:B1 4.66108e-05
*RES
1 *1574:X *1576:B1 8.51 
*END

*D_NET *297 0.000657213
*CONN
*I *1576:B2 I *D sky130_fd_sc_hd__a22o_1
*I *1575:X O *D sky130_fd_sc_hd__o31a_1
*CAP
1 *1576:B2 0.000217444
2 *1575:X 0.000217444
3 *1576:B2 *1576:A1 3.26889e-05
4 *1576:B2 *1681:A0 5.20968e-05
5 *1576:B2 *1831:A 0
6 *1576:B2 *381:54 9.27495e-05
7 *1576:B1 *1576:B2 1.24244e-05
8 *1815:D *1576:B2 3.23663e-05
9 *278:42 *1576:B2 0
*RES
1 *1575:X *1576:B2 11.325 
*END

*D_NET *298 0.00118405
*CONN
*I *1579:A1 I *D sky130_fd_sc_hd__a21oi_1
*I *1580:A1 I *D sky130_fd_sc_hd__a31o_1
*I *1577:X O *D sky130_fd_sc_hd__or3b_1
*CAP
1 *1579:A1 5.55285e-05
2 *1580:A1 7.94091e-05
3 *1577:X 0.000183394
4 *298:6 0.000318332
5 *1579:A1 *1581:B1 2.09974e-05
6 *298:6 *1577:C_N 0.000155601
7 *1556:B *298:6 4.66108e-05
8 *1580:B1 *1579:A1 0.000112087
9 *161:20 *1579:A1 0.000153364
10 *240:12 *1580:A1 2.76356e-05
11 *240:12 *298:6 3.10949e-05
*RES
1 *1577:X *298:6 4.465 
2 *298:6 *1580:A1 2.755 
3 *298:6 *1579:A1 7.49 
*END

*D_NET *299 0.00121783
*CONN
*I *1580:A2 I *D sky130_fd_sc_hd__a31o_1
*I *1579:A2 I *D sky130_fd_sc_hd__a21oi_1
*I *1578:Y O *D sky130_fd_sc_hd__nand2_1
*CAP
1 *1580:A2 4.61355e-05
2 *1579:A2 0.00012227
3 *1578:Y 0.000214806
4 *299:6 0.000383212
5 *1580:A2 *1581:B1 0.000110791
6 *1578:A *299:6 1.79098e-05
7 *1579:B1 *1579:A2 5.69036e-05
8 *1579:B1 *1580:A2 0.000109489
9 *1579:B1 *299:6 2.21074e-05
10 *161:20 *1579:A2 1.14169e-05
11 *279:8 *1579:A2 5.93408e-05
12 *279:8 *299:6 6.34483e-05
*RES
1 *1578:Y *299:6 4.12 
2 *299:6 *1579:A2 3.805 
3 *299:6 *1580:A2 6.98 
*END

*D_NET *300 0.00159682
*CONN
*I *1581:B1 I *D sky130_fd_sc_hd__o22ai_1
*I *1579:Y O *D sky130_fd_sc_hd__a21oi_1
*CAP
1 *1581:B1 0.000366738
2 *1579:Y 0.000366738
3 *1581:B1 *1581:A1 2.49909e-05
4 *1581:B1 *1583:B1 2.29328e-05
5 *1581:B1 *303:133 8.33066e-06
6 *1579:A1 *1581:B1 2.09974e-05
7 *1579:B1 *1581:B1 1.21256e-05
8 *1580:A2 *1581:B1 0.000110791
9 *1580:B1 *1581:B1 0.000215049
10 *1581:A2 *1581:B1 0.000268739
11 *149:70 *1581:B1 0.000125389
12 *161:20 *1581:B1 3.84008e-05
13 *254:82 *1581:B1 1.55955e-05
*RES
1 *1579:Y *1581:B1 15.195 
*END

*D_NET *301 0.000621941
*CONN
*I *1581:B2 I *D sky130_fd_sc_hd__o22ai_1
*I *1580:X O *D sky130_fd_sc_hd__a31o_1
*CAP
1 *1581:B2 0.000164994
2 *1580:X 0.000164994
3 *1581:B2 *1513:A 0.000143081
4 *1581:B2 *385:100 2.19562e-06
5 *1581:B2 *474:25 0.000117832
6 *1513:B *1581:B2 1.32026e-05
7 *240:6 *1581:B2 1.56428e-05
*RES
1 *1580:X *1581:B2 10.065 
*END

*D_NET *302 0.000616105
*CONN
*I *1583:B1 I *D sky130_fd_sc_hd__o2bb2ai_1
*I *1581:Y O *D sky130_fd_sc_hd__o22ai_1
*CAP
1 *1583:B1 0.000216266
2 *1581:Y 0.000216266
3 *1583:B1 *1583:A1_N 0.000160641
4 *1581:B1 *1583:B1 2.29328e-05
*RES
1 *1581:Y *1583:B1 7.0175 
*END

*D_NET *303 0.0259016
*CONN
*I *1661:A2 I *D sky130_fd_sc_hd__a31o_1
*I *1659:A2 I *D sky130_fd_sc_hd__a31o_1
*I *1583:B2 I *D sky130_fd_sc_hd__o2bb2ai_1
*I *1666:A1 I *D sky130_fd_sc_hd__o21ai_1
*I *1587:A1_N I *D sky130_fd_sc_hd__a2bb2o_1
*I *1649:A2 I *D sky130_fd_sc_hd__a31o_1
*I *1653:A2 I *D sky130_fd_sc_hd__a31o_1
*I *1655:A2 I *D sky130_fd_sc_hd__a31o_1
*I *1651:A2 I *D sky130_fd_sc_hd__a31o_1
*I *1657:A2 I *D sky130_fd_sc_hd__a31o_1
*I *1582:X O *D sky130_fd_sc_hd__clkbuf_4
*CAP
1 *1661:A2 0
2 *1659:A2 0
3 *1583:B2 0.000122699
4 *1666:A1 5.93292e-05
5 *1587:A1_N 0
6 *1649:A2 0
7 *1653:A2 0
8 *1655:A2 0.000295354
9 *1651:A2 4.43337e-05
10 *1657:A2 0.000124868
11 *1582:X 9.67103e-05
12 *303:145 0.000439645
13 *303:135 0.000503014
14 *303:133 0.00165192
15 *303:115 0.00203331
16 *303:73 0.00118957
17 *303:63 0.00155444
18 *303:47 0.00104474
19 *303:20 0.00221101
20 *303:10 0.00222407
21 *1583:B2 *1659:A1 0.000289994
22 *1583:B2 *360:168 9.12857e-06
23 *1583:B2 *385:45 7.05878e-05
24 *1651:A2 *1651:A1 9.50342e-06
25 *1651:A2 *1651:B1 0
26 *1651:A2 *1885:A 0
27 *1655:A2 *1651:B1 0
28 *1655:A2 *1885:A 0
29 *1655:A2 *383:48 4.99619e-05
30 *1655:A2 *383:61 0.000225173
31 *1655:A2 *387:52 0.000478505
32 *1657:A2 *1649:B1 8.60009e-05
33 *1657:A2 *1657:B1 8.7152e-06
34 *1657:A2 *1740:A 1.03503e-05
35 *1666:A1 *1587:A2_N 9.53428e-06
36 *1666:A1 *1666:B1 6.92319e-05
37 *1666:A1 *1667:A2 0.000235049
38 *1666:A1 *1667:B1 8.52845e-05
39 *1666:A1 *361:42 9.80943e-06
40 *303:10 *483:61 5.75222e-05
41 *303:20 *1469:A 5.98143e-05
42 *303:20 *1473:A1 0.000288173
43 *303:20 *1640:A0 0
44 *303:20 *1648:A1 2.60612e-05
45 *303:20 *1648:B1 0
46 *303:20 *1648:B2 3.77365e-05
47 *303:20 *1649:B1 0.000267128
48 *303:20 *1650:A1 3.57981e-05
49 *303:20 *1740:A 5.18779e-05
50 *303:20 *481:41 0.000107653
51 *303:20 *481:47 0.000261355
52 *303:20 *481:59 1.89738e-05
53 *303:20 *482:50 0
54 *303:20 *483:61 3.89826e-05
55 *303:47 *1649:A1 0.000368905
56 *303:47 *486:35 1.50669e-05
57 *303:63 *1653:A1 0.00030822
58 *303:63 *1677:A0 0.00010127
59 *303:63 *1687:A0 0.000150476
60 *303:63 *1687:A1 0.000496095
61 *303:63 *383:99 2.23589e-05
62 *303:63 *487:43 8.34281e-06
63 *303:63 *488:16 0.000161467
64 *303:73 *1793:CLK 0.000184866
65 *303:73 *487:43 1.91597e-05
66 *303:115 *1473:A1 6.62684e-05
67 *303:115 *1661:A1 8.19185e-05
68 *303:133 *1659:B1 0.000690941
69 *303:133 *1660:A1 0.000157993
70 *303:133 *1661:A1 3.12916e-05
71 *303:133 *1661:B1 6.07575e-06
72 *303:145 *1587:A2_N 5.4155e-06
73 *303:145 *1666:B1 0.000124007
74 *303:145 *1667:A2 2.30292e-05
75 *303:145 *306:12 4.21973e-05
76 *303:145 *360:168 0.000105875
77 *303:145 *383:25 0
78 *303:145 *385:45 8.87391e-05
79 *303:145 *385:51 0.000212718
80 *1440:A *303:20 0.000181365
81 *1447:A *303:20 5.35298e-05
82 *1447:C *303:20 3.52733e-05
83 *1449:A2 *303:20 0
84 *1461:C *303:20 0.00024552
85 *1465:B2 *303:20 9.54469e-05
86 *1470:A1 *303:20 0.000285181
87 *1472:A1 *303:20 3.97211e-05
88 *1472:A2 *303:20 0
89 *1473:A2 *303:20 0
90 *1580:B1 *303:133 8.48178e-05
91 *1581:B1 *303:133 8.33066e-06
92 *1584:A *303:133 0.00015639
93 *1651:A3 *303:73 5.95927e-05
94 *1656:A2 *303:47 1.64893e-05
95 *1657:A3 *1657:A2 1.67131e-05
96 *1657:A3 *303:63 0
97 *1659:A3 *303:145 0.000146128
98 *1660:A2 *303:133 4.91952e-05
99 *1792:D *303:63 4.82919e-05
100 *1793:D *303:73 2.75145e-05
101 *1794:D *303:73 3.00381e-05
102 *1794:RESET_B *303:63 0.000120647
103 *1795:RESET_B *1655:A2 8.47513e-05
104 *1813:RESET_B *303:145 0.000143493
105 *155:16 *303:20 1.96308e-05
106 *157:12 *303:20 0
107 *157:23 *303:10 5.46995e-05
108 *157:23 *303:20 9.54538e-05
109 *160:35 *303:115 0.000671377
110 *160:35 *303:133 8.57023e-05
111 *163:111 *303:10 4.77769e-05
112 *173:91 *303:20 0.000175228
113 *174:10 *303:20 0
114 *200:8 *303:115 4.71087e-05
115 *205:18 *303:115 0.000161138
116 *239:49 *303:133 0.000334579
117 *254:82 *303:133 0.000174076
118 *255:35 *303:20 2.75707e-05
119 *259:129 *303:20 0.00137358
120 *266:28 *303:20 0
121 *266:51 *303:63 2.30292e-05
122 *266:67 *303:63 0.000290228
123 *266:79 *303:73 0.000376432
124 *266:119 *303:20 0
125 *278:71 *1583:B2 0
126 *278:71 *303:145 4.9968e-05
*RES
1 *1582:X *303:10 5.43 
2 *303:10 *303:20 40.1925 
3 *303:20 *1657:A2 5.9475 
4 *303:20 *303:47 4.4999 
5 *303:47 *303:63 19.87 
6 *303:63 *303:73 13.88 
7 *303:73 *1651:A2 4.215 
8 *303:73 *1655:A2 11.325 
9 *303:63 *1653:A2 1.6 
10 *303:47 *1649:A2 1.6 
11 *303:10 *303:115 11.45 
12 *303:115 *303:133 27.025 
13 *303:133 *303:135 2 
14 *303:135 *303:145 11.96 
15 *303:145 *1587:A1_N 1.6 
16 *303:145 *1666:A1 4.135 
17 *303:135 *1583:B2 7.275 
18 *303:133 *1659:A2 1.6 
19 *303:115 *1661:A2 1.6 
*END

*D_NET *304 0.000855256
*CONN
*I *1586:B1 I *D sky130_fd_sc_hd__a22oi_2
*I *1584:X O *D sky130_fd_sc_hd__or2_1
*CAP
1 *1586:B1 0.000117282
2 *1584:X 0.000117282
3 *1586:B1 *1586:A1 4.66108e-05
4 *1586:B1 *1586:B2 0.000157595
5 *1586:B1 *1681:A0 8.26614e-05
6 *1585:B1 *1586:B1 2.68464e-05
7 *254:82 *1586:B1 0.00030698
*RES
1 *1584:X *1586:B1 11.325 
*END

*D_NET *305 0.00109671
*CONN
*I *1586:B2 I *D sky130_fd_sc_hd__a22oi_2
*I *1585:Y O *D sky130_fd_sc_hd__a21oi_1
*CAP
1 *1586:B2 0.000312475
2 *1585:Y 0.000312475
3 *1586:B2 *1586:A1 0
4 *1586:B2 *1681:A0 9.37731e-05
5 *1586:B2 *389:36 2.59926e-05
6 *1585:A2 *1586:B2 5.30673e-05
7 *1585:B1 *1586:B2 4.82863e-05
8 *1586:B1 *1586:B2 0.000157595
9 *239:6 *1586:B2 9.30497e-05
*RES
1 *1585:Y *1586:B2 13.815 
*END

*D_NET *306 0.00311424
*CONN
*I *1587:A2_N I *D sky130_fd_sc_hd__a2bb2o_1
*I *1667:A2 I *D sky130_fd_sc_hd__o21ai_1
*I *1586:Y O *D sky130_fd_sc_hd__a22oi_2
*CAP
1 *1587:A2_N 1.66402e-05
2 *1667:A2 0.00015049
3 *1586:Y 0.000235474
4 *306:12 0.000402604
5 *1667:A2 *1667:A1 1.85674e-05
6 *1667:A2 *1667:B1 2.20014e-05
7 *1667:A2 *1674:A2_N 3.04704e-05
8 *306:12 *1587:B2 0.00069125
9 *306:12 *1666:B1 1.12578e-05
10 *306:12 *361:42 1.43191e-05
11 *306:12 *383:156 0.000653565
12 *1528:B *306:12 8.65961e-05
13 *1580:B1 *306:12 3.09233e-05
14 *1666:A1 *1587:A2_N 9.53428e-06
15 *1666:A1 *1667:A2 0.000235049
16 *1813:D *1667:A2 0.000123492
17 *149:70 *306:12 4.31189e-05
18 *254:82 *306:12 6.02202e-05
19 *278:71 *1667:A2 4.99619e-05
20 *278:71 *306:12 0.000158066
21 *303:145 *1587:A2_N 5.4155e-06
22 *303:145 *1667:A2 2.30292e-05
23 *303:145 *306:12 4.21973e-05
*RES
1 *1586:Y *306:12 15.365 
2 *306:12 *1667:A2 5.515 
3 *306:12 *1587:A2_N 1.96 
*END

*D_NET *307 0.00185225
*CONN
*I *1590:A1 I *D sky130_fd_sc_hd__a21o_1
*I *1598:A2 I *D sky130_fd_sc_hd__a31o_1
*I *1597:A1 I *D sky130_fd_sc_hd__a21oi_1
*I *1588:Y O *D sky130_fd_sc_hd__nand3_1
*CAP
1 *1590:A1 2.13317e-05
2 *1598:A2 0.000267742
3 *1597:A1 1.77753e-05
4 *1588:Y 0.000120693
5 *307:21 0.0004196
6 *307:8 0.000268994
7 *1590:A1 *1598:A1 7.23602e-05
8 *1598:A2 *1598:A1 1.6408e-05
9 *1598:A2 *1599:A2_N 7.17555e-05
10 *307:8 *1599:A1_N 2.75229e-05
11 *307:21 *1598:A1 7.23533e-05
12 *1588:A *1597:A1 0
13 *1597:A2 *307:21 4.77757e-05
14 *1598:A3 *1598:A2 2.49909e-05
15 *1598:B1 *307:21 2.68721e-05
16 *193:29 *307:21 0
17 *259:102 *1590:A1 6.45236e-05
18 *259:102 *307:21 0.00022921
19 *263:130 *1598:A2 8.23457e-05
*RES
1 *1588:Y *307:8 3.445 
2 *307:8 *1597:A1 1.96 
3 *307:8 *307:21 5.45 
4 *307:21 *1598:A2 7.08 
5 *307:21 *1590:A1 4.47 
*END

*D_NET *308 0.00273265
*CONN
*I *1598:A1 I *D sky130_fd_sc_hd__a31o_1
*I *1590:B1 I *D sky130_fd_sc_hd__a21o_1
*I *1597:B1 I *D sky130_fd_sc_hd__a21oi_1
*I *1589:Y O *D sky130_fd_sc_hd__o21ai_1
*CAP
1 *1598:A1 0.000224637
2 *1590:B1 0
3 *1597:B1 0.00017068
4 *1589:Y 6.83696e-05
5 *308:18 0.000235803
6 *308:10 0.000358129
7 *1597:B1 *1599:A1_N 7.06865e-05
8 *1598:A1 *1599:A1_N 0
9 *1598:A1 *1599:A2_N 9.45966e-05
10 *1598:A1 *1599:B1 7.90733e-05
11 *308:10 *1599:B1 0.000108647
12 *1478:B1 *1597:B1 8.65961e-05
13 *1478:B1 *308:18 8.40213e-05
14 *1511:A *1597:B1 0
15 *1511:C *1597:B1 0
16 *1590:A1 *1598:A1 7.23602e-05
17 *1598:A2 *1598:A1 1.6408e-05
18 *1598:A3 *1598:A1 2.49909e-05
19 *1598:B1 *1598:A1 0.000354738
20 *255:52 *1597:B1 8.65961e-05
21 *255:52 *308:18 7.35284e-05
22 *259:102 *1597:B1 0.000113606
23 *259:102 *1598:A1 1.7902e-05
24 *259:102 *308:10 3.98498e-05
25 *259:102 *308:18 4.01019e-05
26 *263:100 *1597:B1 0.00018471
27 *263:106 *1597:B1 5.42646e-05
28 *307:21 *1598:A1 7.23533e-05
*RES
1 *1589:Y *308:10 5.3025 
2 *308:10 *308:18 3.7325 
3 *308:18 *1597:B1 10.58 
4 *308:18 *1590:B1 1.6 
5 *308:10 *1598:A1 9.7125 
*END

*D_NET *309 0.00177858
*CONN
*I *1592:B1 I *D sky130_fd_sc_hd__a22o_1
*I *1591:A4 I *D sky130_fd_sc_hd__a41oi_1
*I *1590:X O *D sky130_fd_sc_hd__a21o_1
*CAP
1 *1592:B1 0.000138503
2 *1591:A4 0
3 *1590:X 0.000288768
4 *309:10 0.000427271
5 *1592:B1 *1593:B 0
6 *1592:B1 *472:24 8.34281e-06
7 *1478:B1 *309:10 3.00381e-05
8 *1479:B1 *309:10 3.95269e-05
9 *1592:A2 *1592:B1 0.000152364
10 *1592:B2 *1592:B1 0.000101278
11 *201:23 *1592:B1 9.50342e-06
12 *201:23 *309:10 0.000116165
13 *203:10 *309:10 0.000179728
14 *203:19 *309:10 5.39961e-05
15 *203:32 *1592:B1 4.14369e-05
16 *203:32 *309:10 0.00013521
17 *259:102 *309:10 0
18 *263:106 *309:10 5.64495e-05
*RES
1 *1590:X *309:10 9.51 
2 *309:10 *1591:A4 3.6 
3 *309:10 *1592:B1 6.39 
*END

*D_NET *310 0.000570635
*CONN
*I *1593:A I *D sky130_fd_sc_hd__nand2_1
*I *1591:Y O *D sky130_fd_sc_hd__a41oi_1
*CAP
1 *1593:A 0.000197246
2 *1591:Y 0.000197246
3 *1593:A *385:102 4.52645e-05
4 *1593:A *400:34 5.71884e-05
5 *1593:A *472:54 6.28132e-05
6 *1591:A1 *1593:A 1.08758e-05
*RES
1 *1591:Y *1593:A 10.41 
*END

*D_NET *311 0.000154107
*CONN
*I *1593:B I *D sky130_fd_sc_hd__nand2_1
*I *1592:X O *D sky130_fd_sc_hd__a22o_1
*CAP
1 *1593:B 6.12698e-05
2 *1592:X 6.12698e-05
3 *1593:B *472:24 1.14169e-05
4 *1592:B1 *1593:B 0
5 *278:123 *1593:B 2.01504e-05
*RES
1 *1592:X *1593:B 4.265 
*END

*D_NET *312 0.00207985
*CONN
*I *1668:A1 I *D sky130_fd_sc_hd__a32o_1
*I *1595:B1 I *D sky130_fd_sc_hd__a22o_1
*I *1593:Y O *D sky130_fd_sc_hd__nand2_1
*CAP
1 *1668:A1 0.000111341
2 *1595:B1 0
3 *1593:Y 0.000496246
4 *312:10 0.000607588
5 *1668:A1 *1668:A2 6.61163e-05
6 *312:10 *472:24 6.33849e-05
7 *1538:B1 *1668:A1 0.000124726
8 *1538:B1 *312:10 0.000142186
9 *162:22 *1668:A1 8.63708e-05
10 *278:123 *312:10 0.000381892
*RES
1 *1593:Y *312:10 11.355 
2 *312:10 *1595:B1 3.6 
3 *312:10 *1668:A1 6.705 
*END

*D_NET *313 0.00156341
*CONN
*I *1595:B2 I *D sky130_fd_sc_hd__a22o_1
*I *1668:A2 I *D sky130_fd_sc_hd__a32o_1
*I *1594:X O *D sky130_fd_sc_hd__o31a_1
*CAP
1 *1595:B2 0
2 *1668:A2 0.00016642
3 *1594:X 0.000333788
4 *313:12 0.000500208
5 *1668:A2 *1668:A3 3.45252e-05
6 *1668:A2 *1812:CLK 0.000181717
7 *313:12 *1594:A1 4.90291e-05
8 *313:12 *1812:CLK 4.77769e-05
9 *313:12 *385:100 1.34784e-05
10 *1594:A2 *313:12 1.09869e-05
11 *1594:A3 *313:12 7.35496e-05
12 *1668:A1 *1668:A2 6.61163e-05
13 *162:22 *1668:A2 8.58167e-05
*RES
1 *1594:X *313:12 6.58 
2 *313:12 *1668:A2 9.155 
3 *313:12 *1595:B2 1.6 
*END

*D_NET *314 0.0209142
*CONN
*I *1626:A2 I *D sky130_fd_sc_hd__a22o_1
*I *1652:B1 I *D sky130_fd_sc_hd__a22o_1
*I *1654:B1 I *D sky130_fd_sc_hd__a22o_1
*I *1600:A2 I *D sky130_fd_sc_hd__a22o_1
*I *1610:A2 I *D sky130_fd_sc_hd__a22o_1
*I *1648:B1 I *D sky130_fd_sc_hd__a22o_1
*I *1656:B1 I *D sky130_fd_sc_hd__a22o_1
*I *1650:B1 I *D sky130_fd_sc_hd__a22o_1
*I *1621:A2 I *D sky130_fd_sc_hd__a22o_1
*I *1647:A2 I *D sky130_fd_sc_hd__a221o_1
*I *1596:X O *D sky130_fd_sc_hd__clkbuf_4
*CAP
1 *1626:A2 0
2 *1652:B1 8.3107e-06
3 *1654:B1 0
4 *1600:A2 0.000256233
5 *1610:A2 3.19751e-06
6 *1648:B1 0.000181959
7 *1656:B1 3.03602e-05
8 *1650:B1 5.96666e-05
9 *1621:A2 6.52419e-05
10 *1647:A2 1.01771e-05
11 *1596:X 0.000195161
12 *314:109 0.00122138
13 *314:86 0.00143783
14 *314:73 0.00165577
15 *314:65 0.001571
16 *314:52 0.000358618
17 *314:48 0.000330102
18 *314:40 0.000507476
19 *314:29 0.00184466
20 *314:10 0.00173964
21 *1600:A2 *1600:A1 2.88357e-05
22 *1600:A2 *1669:A0 0.000130625
23 *1600:A2 *1755:A 0.000196084
24 *1600:A2 *317:18 6.54361e-06
25 *1600:A2 *325:14 1.11262e-05
26 *1600:A2 *469:45 1.21329e-05
27 *1610:A2 *1672:A0 6.44978e-06
28 *1610:A2 *325:14 5.31158e-06
29 *1647:A2 *473:8 1.54111e-05
30 *1647:A2 *491:43 2.87433e-05
31 *1648:B1 *1640:A0 0.0001622
32 *1648:B1 *1648:B2 8.64599e-05
33 *1648:B1 *388:14 8.64599e-05
34 *1650:B1 *1650:A1 2.21074e-05
35 *1650:B1 *1651:B1 1.54665e-05
36 *1650:B1 *1652:A1 0.000328214
37 *1652:B1 *1650:A1 4.89395e-05
38 *1652:B1 *1652:A1 2.57814e-05
39 *1656:B1 *1689:A0 3.09774e-05
40 *314:10 *1742:A 0.000457459
41 *314:10 *383:156 0.000130445
42 *314:10 *473:8 0.000824363
43 *314:10 *491:43 0.000202256
44 *314:29 *1499:B 1.01661e-05
45 *314:29 *1790:CLK 0.000157179
46 *314:29 *339:61 0.000628866
47 *314:29 *469:70 5.18691e-05
48 *314:40 *1626:A1 7.28465e-06
49 *314:40 *1638:S 0
50 *314:40 *1822:A 2.56866e-05
51 *314:40 *338:10 0.000276849
52 *314:40 *339:61 0
53 *314:48 *1652:B2 4.28112e-06
54 *314:48 *1677:A0 3.86987e-05
55 *314:48 *338:10 5.31158e-06
56 *314:52 *1650:A1 2.87075e-05
57 *314:52 *1652:A1 0.00021486
58 *314:52 *1652:B2 4.77807e-05
59 *314:65 *1654:B2 8.30109e-05
60 *314:65 *1655:B1 8.27071e-05
61 *314:65 *1677:A0 0.000132821
62 *314:73 *1654:B2 2.85364e-05
63 *314:73 *1689:A0 0
64 *314:73 *360:24 0.000129173
65 *314:73 *382:76 0.000239813
66 *314:73 *382:84 0.000603253
67 *314:73 *412:8 1.39472e-05
68 *314:73 *487:43 0.000119964
69 *314:86 *1640:A0 0.000194531
70 *314:86 *1689:A0 0.000163199
71 *314:86 *487:43 1.61831e-05
72 *314:109 *1640:A0 3.76158e-05
73 *314:109 *1670:A 1.06624e-05
74 *314:109 *1672:A0 0.000139343
75 *314:109 *1677:A0 0.000713035
76 *314:109 *1677:A1 3.56244e-06
77 *314:109 *360:41 6.44082e-05
78 *1482:A *314:29 0.000173792
79 *1492:A *314:29 6.23541e-06
80 *1494:A1 *314:29 4.70326e-05
81 *1499:A *314:29 0.000133528
82 *1600:B2 *1600:A2 0.000350691
83 *1611:A1 *314:29 9.58678e-06
84 *1650:A2 *1650:B1 0.000235378
85 *1650:A2 *314:52 7.14699e-05
86 *1654:A2 *314:65 0.000118358
87 *1654:A2 *314:73 1.56296e-05
88 *1656:A2 *314:86 0.000154022
89 *1657:A3 *1648:B1 9.67081e-06
90 *1657:A3 *314:86 5.8023e-05
91 *1793:RESET_B *314:65 0.000136877
92 *1806:D *314:40 7.33283e-05
93 *1807:D *1621:A2 8.57024e-05
94 *207:10 *314:29 0.000156884
95 *208:14 *314:29 1.92979e-05
96 *229:16 *314:29 0
97 *259:141 *314:48 5.17419e-05
98 *263:12 *314:29 0
99 *263:43 *314:29 4.60561e-05
100 *266:28 *1648:B1 0.00033826
101 *266:67 *314:73 1.0124e-05
102 *303:20 *1648:B1 0
*RES
1 *1596:X *314:10 10.45 
2 *314:10 *1647:A2 1.8775 
3 *314:10 *314:29 32.35 
4 *314:29 *1621:A2 2.74 
5 *314:29 *314:40 7.97 
6 *314:40 *314:48 5.3 
7 *314:48 *314:52 2.19 
8 *314:52 *1650:B1 4.825 
9 *314:52 *314:65 7.97 
10 *314:65 *314:73 20.15 
11 *314:73 *1656:B1 2.215 
12 *314:73 *314:86 8.6525 
13 *314:86 *1648:B1 9.0525 
14 *314:86 *314:109 16.99 
15 *314:109 *1610:A2 3.8325 
16 *314:109 *1600:A2 10.8075 
17 *314:65 *1654:B1 3.6 
18 *314:48 *1652:B1 2.05 
19 *314:40 *1626:A2 3.6 
*END

*D_NET *315 0.000416673
*CONN
*I *1599:A1_N I *D sky130_fd_sc_hd__a2bb2o_1
*I *1597:Y O *D sky130_fd_sc_hd__a21oi_1
*CAP
1 *1599:A1_N 0.000117311
2 *1597:Y 0.000117311
3 *1511:B *1599:A1_N 9.72742e-06
4 *1511:D *1599:A1_N 0
5 *1597:B1 *1599:A1_N 7.06865e-05
6 *1598:A1 *1599:A1_N 0
7 *259:102 *1599:A1_N 3.86607e-05
8 *263:100 *1599:A1_N 5.4155e-06
9 *263:130 *1599:A1_N 3.00381e-05
10 *307:8 *1599:A1_N 2.75229e-05
*RES
1 *1597:Y *1599:A1_N 9.585 
*END

*D_NET *316 0.000469524
*CONN
*I *1599:A2_N I *D sky130_fd_sc_hd__a2bb2o_1
*I *1598:X O *D sky130_fd_sc_hd__a31o_1
*CAP
1 *1599:A2_N 9.25457e-05
2 *1598:X 9.25457e-05
3 *1598:A1 *1599:A2_N 9.45966e-05
4 *1598:A2 *1599:A2_N 7.17555e-05
5 *263:130 *1599:A2_N 0.000118081
*RES
1 *1598:X *1599:A2_N 5.735 
*END

*D_NET *317 0.00519358
*CONN
*I *1600:B1 I *D sky130_fd_sc_hd__a22o_1
*I *1669:A0 I *D sky130_fd_sc_hd__mux2_1
*I *1599:X O *D sky130_fd_sc_hd__a2bb2o_1
*CAP
1 *1600:B1 0
2 *1669:A0 0.000344226
3 *1599:X 0.0010963
4 *317:18 0.00144053
5 *1669:A0 *1672:A0 0.0001615
6 *317:18 *1609:B1 8.42239e-05
7 *317:18 *318:20 1.43019e-05
8 *317:18 *469:45 0
9 *317:18 *470:36 0.000179015
10 *317:18 *471:18 0
11 *317:18 *471:31 0
12 *1457:A2 *317:18 0
13 *1457:B1 *317:18 9.9747e-05
14 *1465:A1 *317:18 0
15 *1508:B1 *317:18 5.64057e-05
16 *1511:B *317:18 0.000202552
17 *1511:D *317:18 9.428e-05
18 *1600:A2 *1669:A0 0.000130625
19 *1600:A2 *317:18 6.54361e-06
20 *1606:A2 *317:18 0.000201393
21 *1606:B2 *317:18 6.74577e-05
22 *1811:D *1669:A0 0.000121369
23 *178:33 *317:18 4.24292e-06
24 *228:56 *317:18 0.000285434
25 *231:31 *317:18 0.000114492
26 *236:10 *317:18 0
27 *236:25 *317:18 0
28 *237:12 *317:18 0.000294951
29 *263:100 *317:18 0.000176523
30 *263:106 *317:18 8.73389e-06
31 *263:130 *317:18 8.73389e-06
*RES
1 *1599:X *317:18 27.885 
2 *317:18 *1669:A0 10.545 
3 *317:18 *1600:B1 3.6 
*END

*D_NET *318 0.00228827
*CONN
*I *1602:B2 I *D sky130_fd_sc_hd__a22oi_1
*I *1603:A4 I *D sky130_fd_sc_hd__a41o_1
*I *1608:B I *D sky130_fd_sc_hd__and3_1
*I *1601:Y O *D sky130_fd_sc_hd__o2111ai_2
*CAP
1 *1602:B2 2.1138e-05
2 *1603:A4 0.000211419
3 *1608:B 5.70379e-05
4 *1601:Y 9.64815e-05
5 *318:20 0.000358841
6 *318:12 0.000208004
7 *1602:B2 *1604:B1 5.83121e-06
8 *1603:A4 *1604:B2 0.000271306
9 *318:12 *1608:C 0.000120439
10 *318:20 *1608:C 0.000116905
11 *1601:A2 *318:12 0
12 *1601:D1 *318:12 5.83121e-06
13 *1603:A3 *1603:A4 0.000270524
14 *1603:B1 *1603:A4 2.0514e-05
15 *228:43 *318:12 1.19928e-05
16 *231:12 *1603:A4 3.66286e-05
17 *231:12 *1608:B 0.000119285
18 *231:31 *318:20 9.54469e-05
19 *234:6 *1602:B2 4.66108e-05
20 *237:12 *318:12 0.000109845
21 *237:12 *318:20 2.8531e-05
22 *263:92 *1603:A4 6.1357e-05
23 *317:18 *318:20 1.43019e-05
*RES
1 *1601:Y *318:12 5.79 
2 *318:12 *318:20 4.445 
3 *318:20 *1608:B 2.755 
4 *318:20 *1603:A4 6.55 
5 *318:12 *1602:B2 4.05 
*END

*D_NET *319 0.00245474
*CONN
*I *1604:B1 I *D sky130_fd_sc_hd__o221a_1
*I *1602:Y O *D sky130_fd_sc_hd__a22oi_1
*CAP
1 *1604:B1 0.000724442
2 *1602:Y 0.000724442
3 *1604:B1 *1507:B 7.42989e-06
4 *1604:B1 *1607:B1 1.79536e-05
5 *1604:B1 *385:102 3.93775e-05
6 *1604:B1 *469:45 8.40213e-05
7 *1601:A2 *1604:B1 2.75145e-05
8 *1602:B2 *1604:B1 5.83121e-06
9 *1696:A1 *1604:B1 2.50813e-05
10 *193:16 *1604:B1 8.66454e-06
11 *234:6 *1604:B1 5.21706e-05
12 *259:102 *1604:B1 3.59531e-06
13 *259:129 *1604:B1 0.000734215
*RES
1 *1602:Y *1604:B1 12.1166 
*END

*D_NET *320 0.00118561
*CONN
*I *1604:B2 I *D sky130_fd_sc_hd__o221a_1
*I *1603:X O *D sky130_fd_sc_hd__a41o_1
*CAP
1 *1604:B2 0.000391701
2 *1603:X 0.000391701
3 *1604:B2 *385:102 0.000113797
4 *1601:A2 *1604:B2 1.71013e-05
5 *1603:A4 *1604:B2 0.000271306
*RES
1 *1603:X *1604:B2 12.48 
*END

*D_NET *321 0.00805272
*CONN
*I *1671:B1 I *D sky130_fd_sc_hd__a22o_1
*I *1605:B1 I *D sky130_fd_sc_hd__a21o_1
*I *1604:X O *D sky130_fd_sc_hd__o221a_1
*CAP
1 *1671:B1 0.00169953
2 *1605:B1 0.000117496
3 *1604:X 0.000108288
4 *321:8 0.00192532
5 *1605:B1 *388:139 8.42817e-05
6 *1671:B1 *1530:B 0.000187071
7 *1671:B1 *1636:A0 0
8 *1671:B1 *1671:A1 3.6042e-05
9 *1671:B1 *1671:A2 4.88428e-05
10 *1671:B1 *1770:CLK 0.000360934
11 *1671:B1 *359:18 0
12 *1671:B1 *390:53 0.000173903
13 *1671:B1 *400:28 0.000141606
14 *321:8 *388:139 0.000121659
15 *321:8 *470:12 1.91597e-05
16 *1531:A1 *1671:B1 0
17 *1604:A2 *1671:B1 0
18 *1605:A2 *1605:B1 0.000124888
19 *1605:A2 *1671:B1 6.16495e-05
20 *1696:A2 *1671:B1 0.00158819
21 *1767:D *1671:B1 3.68682e-05
22 *163:124 *1671:B1 0.00121048
23 *278:125 *1671:B1 6.51234e-06
*RES
1 *1604:X *321:8 5.43 
2 *321:8 *1605:B1 6.705 
3 *321:8 *1671:B1 43.635 
*END

*D_NET *322 0.00164852
*CONN
*I *1607:B1 I *D sky130_fd_sc_hd__a21o_1
*I *1606:X O *D sky130_fd_sc_hd__o22a_1
*CAP
1 *1607:B1 0.000473396
2 *1606:X 0.000473396
3 *1607:B1 *1507:B 0
4 *1607:B1 *469:45 0.000245893
5 *1607:B1 *470:46 6.74079e-05
6 *1604:B1 *1607:B1 1.79536e-05
7 *1608:A *1607:B1 0.000103321
8 *173:162 *1607:B1 0
9 *230:6 *1607:B1 0.000267152
*RES
1 *1606:X *1607:B1 15.18 
*END

*D_NET *323 0.00132128
*CONN
*I *1608:C I *D sky130_fd_sc_hd__and3_1
*I *1607:X O *D sky130_fd_sc_hd__a21o_1
*CAP
1 *1608:C 0.000216051
2 *1607:X 0.000216051
3 *1608:C *1609:B1 4.43871e-06
4 *1608:C *469:45 1.26548e-05
5 *1601:D1 *1608:C 1.14169e-05
6 *1606:A2 *1608:C 2.46007e-05
7 *1607:A1 *1608:C 0.00015856
8 *1608:A *1608:C 0.000322136
9 *228:43 *1608:C 0.000104626
10 *231:31 *1608:C 4.24292e-06
11 *263:92 *1608:C 9.16333e-06
12 *318:12 *1608:C 0.000120439
13 *318:20 *1608:C 0.000116905
*RES
1 *1607:X *1608:C 13.74 
*END

*D_NET *324 0.000706645
*CONN
*I *1609:B1 I *D sky130_fd_sc_hd__a31o_1
*I *1608:X O *D sky130_fd_sc_hd__and3_1
*CAP
1 *1609:B1 0.000144066
2 *1608:X 0.000144066
3 *1609:B1 *469:45 0
4 *1609:B1 *470:36 4.82919e-05
5 *1457:A1 *1609:B1 4.66108e-05
6 *1606:A2 *1609:B1 0.000136182
7 *1608:C *1609:B1 4.43871e-06
8 *1609:A2 *1609:B1 2.37321e-05
9 *178:12 *1609:B1 4.5783e-05
10 *178:33 *1609:B1 2.92496e-05
11 *317:18 *1609:B1 8.42239e-05
*RES
1 *1608:X *1609:B1 11.07 
*END

*D_NET *325 0.004732
*CONN
*I *1610:B1 I *D sky130_fd_sc_hd__a22o_1
*I *1672:A0 I *D sky130_fd_sc_hd__mux2_1
*I *1609:X O *D sky130_fd_sc_hd__a31o_1
*CAP
1 *1610:B1 0
2 *1672:A0 0.000671955
3 *1609:X 0.000627127
4 *325:14 0.00129908
5 *1672:A0 *1669:A1 0.000422968
6 *1672:A0 *1850:A 6.15099e-05
7 *1672:A0 *1883:A 0
8 *1672:A0 *360:41 0.000301193
9 *1672:A0 *388:80 0
10 *325:14 *1833:A 0
11 *325:14 *408:28 0.000324344
12 *325:14 *469:45 0.000421357
13 *325:14 *470:46 5.83121e-06
14 *1458:C1 *325:14 0.000182478
15 *1600:A2 *325:14 1.11262e-05
16 *1600:B2 *325:14 8.82261e-05
17 *1609:A3 *325:14 2.19562e-06
18 *1610:A2 *1672:A0 6.44978e-06
19 *1610:A2 *325:14 5.31158e-06
20 *1669:A0 *1672:A0 0.0001615
21 *1785:D *1672:A0 0
22 *1785:RESET_B *1672:A0 0
23 *314:109 *1672:A0 0.000139343
*RES
1 *1609:X *325:14 16.44 
2 *325:14 *1672:A0 20.86 
3 *325:14 *1610:B1 3.6 
*END

*D_NET *326 0.00132431
*CONN
*I *1615:B2 I *D sky130_fd_sc_hd__o221ai_1
*I *1611:Y O *D sky130_fd_sc_hd__a21oi_1
*CAP
1 *1615:B2 0.000454079
2 *1611:Y 0.000454079
3 *1615:B2 *1499:B 7.3044e-06
4 *1615:B2 *1614:A1_N 9.17155e-05
5 *1615:B2 *1614:A2_N 2.8185e-05
6 *1615:B2 *1616:A1 0
7 *1615:B2 *1616:C1 3.26889e-05
8 *1615:B2 *469:70 8.23457e-05
9 *1615:B1 *1615:B2 7.23602e-05
10 *149:43 *1615:B2 3.68773e-05
11 *226:14 *1615:B2 6.46793e-05
*RES
1 *1611:Y *1615:B2 13.53 
*END

*D_NET *327 0.00170027
*CONN
*I *1614:A1_N I *D sky130_fd_sc_hd__a2bb2o_1
*I *1612:X O *D sky130_fd_sc_hd__and3_1
*CAP
1 *1614:A1_N 0.000313973
2 *1612:X 0.000313973
3 *1614:A1_N *1614:A2_N 0.000184559
4 *1499:C *1614:A1_N 2.05641e-05
5 *1500:A *1614:A1_N 2.0514e-05
6 *1612:B *1614:A1_N 0.000104104
7 *1614:B1 *1614:A1_N 8.53113e-06
8 *1615:B2 *1614:A1_N 9.17155e-05
9 *149:43 *1614:A1_N 0.00024194
10 *153:27 *1614:A1_N 4.24292e-06
11 *213:8 *1614:A1_N 0.000265772
12 *222:21 *1614:A1_N 0.000130378
*RES
1 *1612:X *1614:A1_N 15.24 
*END

*D_NET *328 0.00120781
*CONN
*I *1614:A2_N I *D sky130_fd_sc_hd__a2bb2o_1
*I *1613:Y O *D sky130_fd_sc_hd__nor2_1
*CAP
1 *1614:A2_N 0.000190295
2 *1613:Y 0.000190295
3 *1482:A *1614:A2_N 0.000119251
4 *1499:C *1614:A2_N 1.7635e-05
5 *1500:A *1614:A2_N 0.000121541
6 *1501:A2 *1614:A2_N 9.03508e-06
7 *1613:B *1614:A2_N 6.67061e-05
8 *1614:A1_N *1614:A2_N 0.000184559
9 *1615:B2 *1614:A2_N 2.8185e-05
10 *153:27 *1614:A2_N 0.000168081
11 *222:21 *1614:A2_N 2.73058e-05
12 *226:14 *1614:A2_N 8.49205e-05
*RES
1 *1613:Y *1614:A2_N 12.675 
*END

*D_NET *329 0.000513614
*CONN
*I *1615:C1 I *D sky130_fd_sc_hd__o221ai_1
*I *1614:X O *D sky130_fd_sc_hd__a2bb2o_1
*CAP
1 *1615:C1 0.000114374
2 *1614:X 0.000114374
3 *173:30 *1615:C1 0.000143266
4 *254:63 *1615:C1 0.000141599
*RES
1 *1614:X *1615:C1 9.63 
*END

*D_NET *330 0.000528958
*CONN
*I *1616:C1 I *D sky130_fd_sc_hd__o211ai_1
*I *1615:Y O *D sky130_fd_sc_hd__o221ai_1
*CAP
1 *1616:C1 8.67891e-05
2 *1615:Y 8.67891e-05
3 *1616:C1 *1616:A1 6.70821e-05
4 *1616:C1 *331:8 2.5324e-05
5 *1615:A1 *1616:C1 4.77757e-05
6 *1615:A2 *1616:C1 0.000134222
7 *1615:B2 *1616:C1 3.26889e-05
8 *1616:B1 *1616:C1 4.82863e-05
*RES
1 *1615:Y *1616:C1 6.08 
*END

*D_NET *331 0.00613164
*CONN
*I *1674:A1_N I *D sky130_fd_sc_hd__a2bb2o_1
*I *1617:B1_N I *D sky130_fd_sc_hd__a21bo_1
*I *1616:Y O *D sky130_fd_sc_hd__o211ai_1
*CAP
1 *1674:A1_N 0.000777122
2 *1617:B1_N 0.000378426
3 *1616:Y 0.00107062
4 *331:8 0.00222617
5 *1617:B1_N *1642:A0 0.000257628
6 *1617:B1_N *1675:A1 5.62881e-05
7 *1617:B1_N *360:132 0
8 *1674:A1_N *1642:A0 0.000160705
9 *1674:A1_N *1674:A2_N 0.00041574
10 *1674:A1_N *1813:CLK 2.7872e-05
11 *1674:A1_N *360:132 0
12 *1674:A1_N *360:168 1.44308e-05
13 *1674:A1_N *382:53 2.15271e-05
14 *331:8 *1616:A1 0.000156658
15 *331:8 *1733:A 2.30292e-05
16 *331:8 *383:48 0.000142661
17 *331:8 *481:41 8.6371e-05
18 *1615:A1 *331:8 2.68526e-05
19 *1616:C1 *331:8 2.5324e-05
20 *1789:RESET_B *331:8 0.000192217
21 *1808:D *1617:B1_N 3.1562e-06
22 *1813:D *1674:A1_N 6.88421e-05
*RES
1 *1616:Y *331:8 16.47 
2 *331:8 *1617:B1_N 11.55 
3 *331:8 *1674:A1_N 15.135 
*END

*D_NET *332 0.000206941
*CONN
*I *1620:B1 I *D sky130_fd_sc_hd__a32o_1
*I *1618:X O *D sky130_fd_sc_hd__o22a_1
*CAP
1 *1620:B1 3.15257e-05
2 *1618:X 3.15257e-05
3 *1620:B1 *1620:A1 6.77002e-05
4 *1620:B1 *1621:B1 1.58457e-05
5 *1620:B1 *339:61 2.39856e-05
6 *1620:B1 *468:53 3.63576e-05
*RES
1 *1618:X *1620:B1 4.1675 
*END

*D_NET *333 0.000595309
*CONN
*I *1620:B2 I *D sky130_fd_sc_hd__a32o_1
*I *1619:X O *D sky130_fd_sc_hd__a221o_1
*CAP
1 *1620:B2 0.000128508
2 *1619:X 0.000128508
3 *1620:B2 *1621:B1 9.30717e-05
4 *1619:A1 *1620:B2 0.000116158
5 *1619:C1 *1620:B2 0.000119756
6 *254:48 *1620:B2 9.3062e-06
*RES
1 *1619:X *1620:B2 9.72 
*END

*D_NET *334 0.00497301
*CONN
*I *1621:B1 I *D sky130_fd_sc_hd__a22o_1
*I *1675:A0 I *D sky130_fd_sc_hd__mux2_1
*I *1620:X O *D sky130_fd_sc_hd__a32o_1
*CAP
1 *1621:B1 0.000683968
2 *1675:A0 0.000560371
3 *1620:X 0
4 *334:4 0.00124434
5 *1621:B1 *1620:A1 2.07473e-05
6 *1621:B1 *1624:B1 0
7 *1621:B1 *1625:B1 9.5433e-05
8 *1621:B1 *338:10 5.42473e-05
9 *1621:B1 *339:61 0.000233884
10 *1621:B1 *461:14 3.41501e-05
11 *1675:A0 *1675:A1 0.000569444
12 *1675:A0 *1675:S 0.00026893
13 *1675:A0 *339:61 0.000299996
14 *1675:A0 *360:113 0.000271694
15 *1619:A1 *1621:B1 3.33408e-05
16 *1620:A2 *1621:B1 4.35938e-05
17 *1620:B1 *1621:B1 1.58457e-05
18 *1620:B2 *1621:B1 9.30717e-05
19 *1625:A3 *1621:B1 7.81894e-05
20 *149:43 *1621:B1 0
21 *163:49 *1621:B1 2.04694e-05
22 *163:51 *1621:B1 5.53249e-06
23 *220:10 *1621:B1 0.00024283
24 *221:10 *1621:B1 0
25 *254:48 *1621:B1 0.000102935
*RES
1 *1620:X *334:4 1.6 
2 *334:4 *1675:A0 15.16 
3 *334:4 *1621:B1 19.55 
*END

*D_NET *335 0.00192357
*CONN
*I *1623:A3 I *D sky130_fd_sc_hd__o32a_1
*I *1624:B1 I *D sky130_fd_sc_hd__o21ai_1
*I *1622:X O *D sky130_fd_sc_hd__and2b_1
*CAP
1 *1623:A3 0
2 *1624:B1 0.000167672
3 *1622:X 7.33875e-05
4 *335:6 0.00024106
5 *1624:B1 *1623:A1 0.000195586
6 *1624:B1 *1625:B2 4.99619e-05
7 *1624:B1 *461:14 2.59981e-05
8 *1624:B1 *461:27 1.15688e-05
9 *1624:B1 *461:33 1.08758e-05
10 *1624:B1 *467:31 4.82863e-05
11 *1624:B1 *480:33 0.000210645
12 *335:6 *480:33 8.43862e-05
13 *1492:C *335:6 4.66108e-05
14 *1621:B1 *1624:B1 0
15 *1622:A_N *335:6 4.82863e-05
16 *1623:B1 *335:6 4.82919e-05
17 *1625:A2 *1624:B1 0.000136884
18 *1625:A3 *1624:B1 0.000157595
19 *217:10 *1624:B1 3.00381e-05
20 *217:10 *335:6 0.000114465
21 *217:16 *1624:B1 2.30292e-05
22 *219:6 *335:6 3.66286e-05
23 *219:16 *335:6 0.000162311
*RES
1 *1622:X *335:6 4.81 
2 *335:6 *1624:B1 10.97 
3 *335:6 *1623:A3 1.6 
*END

*D_NET *336 0.000453486
*CONN
*I *1625:B1 I *D sky130_fd_sc_hd__a32o_1
*I *1623:X O *D sky130_fd_sc_hd__o32a_1
*CAP
1 *1625:B1 0.000125774
2 *1623:X 0.000125774
3 *1625:B1 *1488:A 2.24829e-05
4 *1621:B1 *1625:B1 9.5433e-05
5 *217:16 *1625:B1 8.40213e-05
6 *221:10 *1625:B1 0
*RES
1 *1623:X *1625:B1 9.3225 
*END

*D_NET *337 0.000756875
*CONN
*I *1625:B2 I *D sky130_fd_sc_hd__a32o_1
*I *1624:Y O *D sky130_fd_sc_hd__o21ai_1
*CAP
1 *1625:B2 0.000118246
2 *1624:Y 0.000118246
3 *1625:B2 *1488:A 6.90876e-05
4 *1625:B2 *338:10 0.000233992
5 *1625:B2 *467:31 0.00016734
6 *1624:B1 *1625:B2 4.99619e-05
*RES
1 *1624:Y *1625:B2 6.77 
*END

*D_NET *338 0.00834435
*CONN
*I *1626:B1 I *D sky130_fd_sc_hd__a22o_1
*I *1677:A0 I *D sky130_fd_sc_hd__mux2_1
*I *1625:X O *D sky130_fd_sc_hd__a32o_1
*CAP
1 *1626:B1 0
2 *1677:A0 0.00186682
3 *1625:X 0.00052453
4 *338:10 0.00239135
5 *1677:A0 *1649:B1 0.000281505
6 *1677:A0 *1677:A1 0
7 *1677:A0 *1687:A0 9.49063e-05
8 *1677:A0 *1731:A 0.000163052
9 *1677:A0 *1782:CLK 0
10 *1677:A0 *360:41 0
11 *1677:A0 *383:86 4.02438e-05
12 *1677:A0 *488:16 0.00046521
13 *338:10 *1832:A 2.48641e-05
14 *338:10 *339:61 0
15 *1621:B1 *338:10 5.42473e-05
16 *1625:B2 *338:10 0.000233992
17 *1654:A2 *1677:A0 0.000111293
18 *1787:D *1677:A0 4.6368e-06
19 *1796:D *1677:A0 4.77807e-05
20 *163:51 *338:10 0
21 *259:141 *1677:A0 0.000122692
22 *266:51 *1677:A0 0.000154775
23 *266:67 *1677:A0 0.000494455
24 *303:63 *1677:A0 0.00010127
25 *314:40 *338:10 0.000276849
26 *314:48 *1677:A0 3.86987e-05
27 *314:48 *338:10 5.31158e-06
28 *314:65 *1677:A0 0.000132821
29 *314:109 *1677:A0 0.000713035
*RES
1 *1625:X *338:10 13.275 
2 *338:10 *1677:A0 41.755 
3 *338:10 *1626:B1 3.6 
*END

*D_NET *339 0.0289123
*CONN
*I *1628:S I *D sky130_fd_sc_hd__mux2_1
*I *1636:S I *D sky130_fd_sc_hd__mux2_1
*I *1701:B1 I *D sky130_fd_sc_hd__o211ai_1
*I *1703:C1 I *D sky130_fd_sc_hd__o211ai_1
*I *1630:S I *D sky130_fd_sc_hd__mux2_1
*I *1640:S I *D sky130_fd_sc_hd__mux2_1
*I *1642:S I *D sky130_fd_sc_hd__mux2_1
*I *1632:S I *D sky130_fd_sc_hd__mux2_1
*I *1634:S I *D sky130_fd_sc_hd__mux2_1
*I *1638:S I *D sky130_fd_sc_hd__mux2_1
*I *1627:Y O *D sky130_fd_sc_hd__nand2_8
*CAP
1 *1628:S 0.000254147
2 *1636:S 0.000733356
3 *1701:B1 1.36534e-05
4 *1703:C1 0
5 *1630:S 0.000589953
6 *1640:S 0.000168427
7 *1642:S 0
8 *1632:S 0.000405399
9 *1634:S 0.000121987
10 *1638:S 0.000147278
11 *1627:Y 2.93639e-05
12 *339:154 0.00139134
13 *339:139 0.000752809
14 *339:69 0.00104174
15 *339:61 0.00206865
16 *339:26 0.00248535
17 *339:22 0.00406416
18 *339:16 0.00405145
19 *339:10 0.000467267
20 *339:6 0.000482406
21 *1628:S *1628:A0 0
22 *1628:S *1890:A 0
23 *1628:S *381:90 5.10957e-05
24 *1628:S *483:12 2.28636e-05
25 *1628:S *483:36 0.000275553
26 *1630:S *1705:A1 0.000269668
27 *1630:S *381:116 9.47972e-06
28 *1630:S *482:14 3.1226e-05
29 *1630:S *482:38 0.000416246
30 *1632:S *1632:A1 1.43521e-05
31 *1632:S *1747:A 3.09233e-05
32 *1632:S *1894:A 2.75145e-05
33 *1632:S *384:12 2.14129e-05
34 *1632:S *384:14 0.000696751
35 *1634:S *1634:A1 8.65905e-05
36 *1634:S *1635:A 0
37 *1634:S *1747:A 0.000137578
38 *1634:S *387:125 4.82919e-05
39 *1636:S *1636:A1 5.4155e-06
40 *1636:S *390:70 0.000241006
41 *1636:S *479:12 3.87112e-05
42 *1638:S *1638:A0 0
43 *1638:S *1639:A 2.98587e-05
44 *1638:S *1691:A0 2.68526e-05
45 *1638:S *387:29 4.89295e-05
46 *1640:S *486:35 0
47 *1701:B1 *1697:A 4.66108e-05
48 *1701:B1 *1701:A1 4.66108e-05
49 *339:10 *494:23 2.99518e-06
50 *339:10 *494:32 5.19493e-05
51 *339:10 *494:43 1.56908e-05
52 *339:16 *1858:A 0
53 *339:16 *359:18 0
54 *339:16 *361:36 4.55864e-06
55 *339:16 *388:163 0
56 *339:16 *494:23 3.63701e-06
57 *339:22 *1689:A1 7.95286e-05
58 *339:22 *1718:A 0
59 *339:22 *1722:A 0
60 *339:22 *359:18 0
61 *339:22 *359:22 0
62 *339:22 *381:116 0
63 *339:22 *388:163 0
64 *339:22 *470:12 0
65 *339:26 *1641:A 0.000538052
66 *339:26 *1744:A 8.50864e-05
67 *339:26 *384:73 0.00021561
68 *339:26 *387:10 8.53011e-05
69 *339:26 *486:35 8.73389e-06
70 *339:61 *1642:A0 0.000116853
71 *339:61 *1822:A 0
72 *339:61 *360:113 6.55406e-05
73 *339:61 *468:53 3.18863e-05
74 *339:69 *1642:A0 8.65961e-05
75 *339:69 *1643:A 6.09347e-05
76 *339:69 *384:43 0.000533709
77 *339:139 *1700:A 6.90499e-05
78 *339:139 *1701:A2 0.000368244
79 *339:139 *1749:A 0.000292889
80 *339:139 *377:6 0.000122797
81 *339:139 *381:100 5.83121e-06
82 *339:139 *381:110 2.49909e-05
83 *339:139 *400:22 9.85986e-05
84 *339:154 *1665:A 0.000143999
85 *339:154 *1749:A 0.000401226
86 *339:154 *1769:CLK 0
87 *339:154 *1890:A 0
88 *339:154 *381:90 0.000182978
89 *339:154 *497:8 0.000367603
90 product[9] *1632:S 0
91 *1492:C *339:61 0.000155928
92 *1618:B2 *339:61 4.80285e-05
93 *1620:B1 *339:61 2.39856e-05
94 *1621:B1 *339:61 0.000233884
95 *1623:B1 *339:61 4.66108e-05
96 *1675:A0 *339:61 0.000299996
97 *1700:B *339:6 1.77595e-05
98 *1700:B *339:139 3.88244e-05
99 *1703:A2 *339:10 5.91798e-05
100 *1703:A2 *339:16 4.39088e-05
101 *1767:RESET_B *339:16 5.39718e-05
102 *1772:D *339:22 3.06743e-05
103 *1799:RESET_B *339:26 4.77807e-05
104 *1801:RESET_B *1636:S 4.99619e-05
105 *1805:D *1628:S 6.38291e-05
106 *1805:D *1636:S 9.06931e-05
107 *1805:D *339:154 7.5416e-05
108 *1805:RESET_B *339:154 0
109 *148:45 *339:61 8.63479e-05
110 *152:29 *339:61 0.000192125
111 *153:27 *339:61 9.98435e-05
112 *207:10 *339:61 8.53113e-06
113 *221:10 *339:61 0
114 *221:23 *339:61 3.96713e-05
115 *256:72 *339:10 2.45182e-05
116 *263:43 *339:61 0.000166825
117 *266:28 *1640:S 0.000327999
118 *314:29 *339:61 0.000628866
119 *314:40 *1638:S 0
120 *314:40 *339:61 0
121 *338:10 *339:61 0
*RES
1 *1627:Y *339:6 2.05 
2 *339:6 *339:10 4.655 
3 *339:10 *339:16 5.595 
4 *339:16 *339:22 47.195 
5 *339:22 *339:26 15.905 
6 *339:26 *1638:S 6.24 
7 *339:26 *339:61 33.96 
8 *339:61 *339:69 10.76 
9 *339:69 *1634:S 6.39 
10 *339:69 *1632:S 12.825 
11 *339:61 *1642:S 1.6 
12 *339:22 *1640:S 9.53 
13 *339:16 *1630:S 12.465 
14 *339:10 *1703:C1 3.6 
15 *339:6 *339:139 10.715 
16 *339:139 *1701:B1 4.05 
17 *339:139 *339:154 11.625 
18 *339:154 *1636:S 13.755 
19 *339:154 *1628:S 8.715 
*END

*D_NET *340 0.00015793
*CONN
*I *1629:A I *D sky130_fd_sc_hd__clkbuf_1
*I *1628:X O *D sky130_fd_sc_hd__mux2_1
*CAP
1 *1629:A 5.3984e-05
2 *1628:X 5.3984e-05
3 *1629:A *483:12 0
4 *1629:A *483:36 4.99619e-05
*RES
1 *1628:X *1629:A 4.265 
*END

*D_NET *341 0.000338478
*CONN
*I *1631:A I *D sky130_fd_sc_hd__clkbuf_1
*I *1630:X O *D sky130_fd_sc_hd__mux2_1
*CAP
1 *1631:A 0.000133062
2 *1630:X 0.000133062
3 *1631:A *1749:A 7.23533e-05
4 *1631:A *400:22 0
*RES
1 *1630:X *1631:A 9.39 
*END

*D_NET *342 0.000528589
*CONN
*I *1633:A I *D sky130_fd_sc_hd__clkbuf_1
*I *1632:X O *D sky130_fd_sc_hd__mux2_1
*CAP
1 *1633:A 0.000213318
2 *1632:X 0.000213318
3 *1633:A *1632:A0 2.11084e-05
4 *1633:A *1632:A1 0
5 *1633:A *1803:CLK 0
6 *1633:A *384:12 0
7 *1803:D *1633:A 8.08439e-05
*RES
1 *1632:X *1633:A 11.07 
*END

*D_NET *343 0.000137985
*CONN
*I *1635:A I *D sky130_fd_sc_hd__clkbuf_1
*I *1634:X O *D sky130_fd_sc_hd__mux2_1
*CAP
1 *1635:A 5.39735e-05
2 *1634:X 5.39735e-05
3 *1635:A *1634:A0 3.00381e-05
4 *1634:S *1635:A 0
*RES
1 *1634:X *1635:A 4.265 
*END

*D_NET *344 0.000401079
*CONN
*I *1637:A I *D sky130_fd_sc_hd__clkbuf_1
*I *1636:X O *D sky130_fd_sc_hd__mux2_1
*CAP
1 *1637:A 0.000105058
2 *1636:X 0.000105058
3 *1637:A *359:18 4.40899e-05
4 *1637:A *479:24 3.07153e-05
5 *256:59 *1637:A 0.000116158
*RES
1 *1636:X *1637:A 9.375 
*END

*D_NET *345 0.000878395
*CONN
*I *1639:A I *D sky130_fd_sc_hd__clkbuf_1
*I *1638:X O *D sky130_fd_sc_hd__mux2_1
*CAP
1 *1639:A 0.000207263
2 *1638:X 0.000207263
3 *1639:A *1638:A0 5.00317e-05
4 *1639:A *1691:A0 0.000160338
5 *1639:A *387:29 0.000139509
6 *1638:S *1639:A 2.98587e-05
7 *1800:D *1639:A 8.41307e-05
*RES
1 *1638:X *1639:A 11.985 
*END

*D_NET *346 0.0016245
*CONN
*I *1641:A I *D sky130_fd_sc_hd__clkbuf_1
*I *1640:X O *D sky130_fd_sc_hd__mux2_1
*CAP
1 *1641:A 0.000278785
2 *1640:X 0.000278785
3 *1641:A *1744:A 7.75867e-05
4 *1641:A *1823:A 0
5 *1641:A *486:35 0.000451286
6 *339:26 *1641:A 0.000538052
*RES
1 *1640:X *1641:A 15.915 
*END

*D_NET *347 0.000158218
*CONN
*I *1643:A I *D sky130_fd_sc_hd__clkbuf_1
*I *1642:X O *D sky130_fd_sc_hd__mux2_1
*CAP
1 *1643:A 4.86415e-05
2 *1642:X 4.86415e-05
3 *339:69 *1643:A 6.09347e-05
*RES
1 *1642:X *1643:A 4.265 
*END

*D_NET *348 0.000431184
*CONN
*I *1645:B1 I *D sky130_fd_sc_hd__a2bb2o_1
*I *1644:Y O *D sky130_fd_sc_hd__o21ai_1
*CAP
1 *1645:B1 9.9694e-05
2 *1644:Y 9.9694e-05
3 *1645:B1 *1645:B2 9.33942e-05
4 *1625:A2 *1645:B1 9.17274e-05
5 *1644:A1 *1645:B1 4.66742e-05
*RES
1 *1644:Y *1645:B1 9.12 
*END

*D_NET *349 0.012147
*CONN
*I *1679:A0 I *D sky130_fd_sc_hd__mux2_1
*I *1647:B1 I *D sky130_fd_sc_hd__a221o_1
*I *1645:X O *D sky130_fd_sc_hd__a2bb2o_1
*CAP
1 *1679:A0 0.00189491
2 *1647:B1 0.000227804
3 *1645:X 0.00173288
4 *349:16 0.00385559
5 *1647:B1 *1647:C1 0.000134063
6 *1647:B1 *1790:CLK 2.06578e-05
7 *1679:A0 *1438:A1 0.000752851
8 *1679:A0 *1438:A4 8.02853e-05
9 *1679:A0 *1562:C_N 0.000200831
10 *1679:A0 *1577:C_N 6.74403e-05
11 *1679:A0 *1781:CLK 0
12 *1679:A0 *1824:A 7.9921e-06
13 *1679:A0 *384:108 0
14 *349:16 *383:48 0.000148256
15 *1482:B *349:16 0
16 *1514:B *1679:A0 0.000131017
17 *1516:B *1679:A0 5.50305e-05
18 *1559:B2 *1679:A0 3.69251e-05
19 *1562:A *1679:A0 0
20 *1565:A2 *1679:A0 0.000341555
21 *1569:A3 *1679:A0 7.51456e-05
22 *1569:B1 *1679:A0 7.27827e-05
23 *1616:B1 *1679:A0 0.000989481
24 *1616:B1 *349:16 0.000398459
25 *1645:A1_N *349:16 0.000107382
26 *149:70 *1679:A0 0.000215992
27 *149:104 *1679:A0 1.18673e-05
28 *153:41 *1647:B1 9.387e-06
29 *162:126 *1679:A0 5.02814e-06
30 *163:49 *1647:B1 4.16483e-05
31 *163:49 *1679:A0 3.61728e-05
32 *163:49 *349:16 0.000455512
33 *263:43 *1647:B1 1.88656e-05
34 *280:12 *1679:A0 2.12295e-05
*RES
1 *1645:X *349:16 9.5811 
2 *349:16 *1647:B1 5.44597 
3 *349:16 *1679:A0 24.5804 
*END

*D_NET *350 0.00594957
*CONN
*I *1647:C1 I *D sky130_fd_sc_hd__a221o_1
*I *1646:X O *D sky130_fd_sc_hd__and3_1
*CAP
1 *1647:C1 0.00231662
2 *1646:X 0.00231662
3 *1647:C1 *1648:A1 0.000525188
4 *1647:C1 *386:14 0
5 *1647:C1 *400:34 8.49454e-05
6 *1450:B1 *1647:C1 0.000144371
7 *1478:B1 *1647:C1 0
8 *1581:A2 *1647:C1 2.05641e-05
9 *1647:B1 *1647:C1 0.000134063
10 *1659:A3 *1647:C1 0
11 *153:41 *1647:C1 1.88656e-05
12 *163:49 *1647:C1 9.89447e-05
13 *174:14 *1647:C1 0.000243196
14 *174:27 *1647:C1 4.6194e-05
15 *266:123 *1647:C1 0
*RES
1 *1646:X *1647:C1 14.9901 
*END

*D_NET *351 0.00146034
*CONN
*I *1649:B1 I *D sky130_fd_sc_hd__a31o_1
*I *1648:X O *D sky130_fd_sc_hd__a22o_1
*CAP
1 *1649:B1 0.000200711
2 *1648:X 0.000200711
3 *1649:B1 *1740:A 0.000276252
4 *1657:A2 *1649:B1 8.60009e-05
5 *1657:A3 *1649:B1 8.79601e-05
6 *1677:A0 *1649:B1 0.000281505
7 *1792:D *1649:B1 1.34594e-05
8 *266:51 *1649:B1 4.66108e-05
9 *303:20 *1649:B1 0.000267128
*RES
1 *1648:X *1649:B1 13.83 
*END

*D_NET *352 0.00182795
*CONN
*I *1651:B1 I *D sky130_fd_sc_hd__a31o_1
*I *1650:X O *D sky130_fd_sc_hd__a22o_1
*CAP
1 *1651:B1 0.000541372
2 *1650:X 0.000541372
3 *1651:B1 *1650:A1 0.00012398
4 *1651:B1 *1651:A1 0
5 *1651:B1 *1652:A1 2.01829e-05
6 *1651:B1 *1793:CLK 0.000201503
7 *1651:B1 *383:48 2.3228e-05
8 *1651:B1 *489:10 7.03219e-05
9 *1651:B1 *489:18 2.49909e-05
10 *1651:B1 *489:31 6.23576e-05
11 *1650:B1 *1651:B1 1.54665e-05
12 *1651:A2 *1651:B1 0
13 *1651:A3 *1651:B1 0.000203178
14 *1655:A2 *1651:B1 0
15 *1655:A3 *1651:B1 0
16 *1793:D *1651:B1 0
*RES
1 *1650:X *1651:B1 16.26 
*END

*D_NET *353 0.000872847
*CONN
*I *1653:B1 I *D sky130_fd_sc_hd__a31o_1
*I *1652:X O *D sky130_fd_sc_hd__a22o_1
*CAP
1 *1653:B1 0.000238189
2 *1652:X 0.000238189
3 *1653:B1 *1638:A0 0.000305026
4 *1653:B1 *1650:A1 8.23457e-05
5 *1653:B1 *383:86 9.09788e-06
6 *1794:RESET_B *1653:B1 0
*RES
1 *1652:X *1653:B1 11.67 
*END

*D_NET *354 0.00118489
*CONN
*I *1655:B1 I *D sky130_fd_sc_hd__a31o_1
*I *1654:X O *D sky130_fd_sc_hd__a22o_1
*CAP
1 *1655:B1 0.000309365
2 *1654:X 0.000309365
3 *1655:B1 *1654:A1 8.40213e-05
4 *1655:B1 *1654:B2 6.61752e-05
5 *1655:B1 *1655:A1 0.00028858
6 *1655:B1 *382:76 4.4675e-05
7 *314:65 *1655:B1 8.27071e-05
*RES
1 *1654:X *1655:B1 13.14 
*END

*D_NET *355 0.00127723
*CONN
*I *1657:B1 I *D sky130_fd_sc_hd__a31o_1
*I *1656:X O *D sky130_fd_sc_hd__a22o_1
*CAP
1 *1657:B1 0.000278234
2 *1656:X 0.000278234
3 *1657:B1 *1657:A1 0.000281402
4 *1657:B1 *1740:A 4.11499e-05
5 *1657:B1 *486:18 0.000389496
6 *1657:A2 *1657:B1 8.7152e-06
*RES
1 *1656:X *1657:B1 12.795 
*END

*D_NET *356 0.00409796
*CONN
*I *1659:B1 I *D sky130_fd_sc_hd__a31o_1
*I *1658:X O *D sky130_fd_sc_hd__a22o_1
*CAP
1 *1659:B1 0.000621123
2 *1658:X 0.000621123
3 *1578:A *1659:B1 4.77769e-05
4 *163:6 *1659:B1 0.000233171
5 *163:111 *1659:B1 0.000489075
6 *279:6 *1659:B1 0.000441295
7 *279:8 *1659:B1 0.000953457
8 *303:133 *1659:B1 0.000690941
*RES
1 *1658:X *1659:B1 20.915 
*END

*D_NET *357 0.00162019
*CONN
*I *1661:B1 I *D sky130_fd_sc_hd__a31o_1
*I *1660:X O *D sky130_fd_sc_hd__a22o_1
*CAP
1 *1661:B1 0.000412802
2 *1660:X 0.000412802
3 *1661:B1 *1660:A1 1.26623e-05
4 *1661:B1 *1824:A 4.62243e-05
5 *1658:B1 *1661:B1 3.69766e-05
6 *1659:A3 *1661:B1 0.000276521
7 *1660:A2 *1661:B1 4.41506e-05
8 *1660:B1 *1661:B1 4.77719e-05
9 *1661:A3 *1661:B1 2.24574e-05
10 *160:35 *1661:B1 0.000153816
11 *238:10 *1661:B1 1.18614e-05
12 *266:123 *1661:B1 9.66678e-05
13 *278:10 *1661:B1 3.94062e-05
14 *303:133 *1661:B1 6.07575e-06
*RES
1 *1660:X *1661:B1 12.1824 
*END

*D_NET *358 0.00209742
*CONN
*I *1895:A I *D sky130_fd_sc_hd__clkbuf_2
*I *1877:A I *D sky130_fd_sc_hd__clkbuf_1
*I *1662:Y O *D sky130_fd_sc_hd__nor4b_1
*CAP
1 *1895:A 0.000255916
2 *1877:A 0
3 *1662:Y 0.000341031
4 *358:14 0.000596947
5 *1895:A *1769:CLK 0.000183745
6 *1895:A *1773:CLK 0.000162325
7 *1895:A *381:90 0
8 *1895:A *384:143 6.80075e-05
9 *1895:A *483:36 2.32692e-05
10 *358:14 *1668:A3 4.05358e-05
11 *358:14 *1769:CLK 0
12 *358:14 *359:18 7.60896e-05
13 *358:14 *384:143 9.63998e-05
14 *1698:A2 *358:14 0.000134631
15 *1770:D *358:14 0.00011852
*RES
1 *1662:Y *358:14 12.905 
2 *358:14 *1877:A 1.6 
3 *358:14 *1895:A 11.12 
*END

*D_NET *359 0.034898
*CONN
*I *1693:S I *D sky130_fd_sc_hd__mux2_1
*I *1685:S I *D sky130_fd_sc_hd__mux2_1
*I *1689:S I *D sky130_fd_sc_hd__mux2_1
*I *1683:S I *D sky130_fd_sc_hd__mux2_1
*I *1691:S I *D sky130_fd_sc_hd__mux2_1
*I *1664:A I *D sky130_fd_sc_hd__buf_4
*I *1687:S I *D sky130_fd_sc_hd__mux2_1
*I *1663:Y O *D sky130_fd_sc_hd__nand2_4
*CAP
1 *1693:S 0.000230657
2 *1685:S 0.000361333
3 *1689:S 6.75463e-05
4 *1683:S 2.88292e-05
5 *1691:S 0.000315736
6 *1664:A 0.00011035
7 *1687:S 9.43441e-05
8 *1663:Y 0.000117765
9 *359:95 0.00464266
10 *359:49 0.00282717
11 *359:32 0.00584552
12 *359:22 0.00357107
13 *359:20 0.000342913
14 *359:18 0.00240431
15 *359:8 0.00648952
16 *1664:A *360:12 8.52845e-05
17 *1683:S *1683:A1 1.56428e-05
18 *1685:S *1839:A 1.92979e-05
19 *1685:S *382:32 0
20 *1685:S *384:108 2.28268e-05
21 *1687:S *1687:A0 1.44809e-05
22 *1687:S *1687:A1 0.000112892
23 *1689:S *1776:CLK 0.000163204
24 *1691:S *1691:A0 1.72572e-05
25 *1691:S *1691:A1 4.77719e-05
26 *1691:S *360:12 2.7784e-05
27 *1691:S *360:113 0.000518349
28 *1693:S *1642:A0 0
29 *1693:S *381:14 0.000568808
30 *1693:S *385:26 0
31 *1693:S *389:90 0.000208484
32 *359:8 *1636:A0 0
33 *359:8 *1671:A1 0
34 *359:8 *381:73 3.05373e-05
35 *359:8 *420:29 3.09233e-05
36 *359:18 *1605:A1 4.05358e-05
37 *359:18 *1636:A0 0
38 *359:18 *1671:A1 0
39 *359:18 *1769:CLK 0
40 *359:18 *1770:CLK 0
41 *359:18 *384:143 0.000124895
42 *359:18 *388:122 0
43 *359:18 *388:139 0
44 *359:22 *1689:A0 0.000477622
45 *359:22 *1689:A1 2.66935e-05
46 *359:22 *1722:A 0.000374117
47 *359:22 *388:105 0
48 *359:22 *388:122 0
49 *359:32 *1648:A1 0.000291807
50 *359:32 *1649:A1 0
51 *359:32 *1687:A0 4.36573e-06
52 *359:32 *1689:A0 1.92979e-05
53 *359:32 *1722:A 1.79483e-05
54 *359:49 *1653:A1 0.000160194
55 *359:49 *360:24 0
56 *359:49 *360:113 1.09565e-05
57 *359:49 *382:76 0
58 *359:95 *384:108 0.000583843
59 *359:95 *384:135 0.000546977
60 *1549:A3 *359:95 0.00115135
61 *1594:A2 *359:95 4.08524e-05
62 *1605:A2 *359:18 9.70252e-05
63 *1616:B1 *359:95 2.08619e-05
64 *1637:A *359:18 4.40899e-05
65 *1671:B1 *359:18 0
66 *1696:A1 *359:18 9.5799e-06
67 *1698:A2 *359:18 8.26522e-05
68 *1703:A2 *359:18 8.82674e-05
69 *1770:D *359:18 6.74079e-05
70 *1772:D *359:18 9.18556e-05
71 *1810:D *359:18 0
72 *1810:RESET_B *359:18 9.24049e-05
73 *163:61 *359:32 0.000108552
74 *163:124 *359:18 0
75 *256:59 *359:18 0
76 *256:72 *359:18 0.000149092
77 *257:10 *359:18 7.59067e-05
78 *259:135 *359:32 0.000107425
79 *266:67 *1687:S 0
80 *266:67 *359:32 0
81 *278:123 *359:18 0.000360618
82 *278:125 *359:18 0.0002214
83 *339:16 *359:18 0
84 *339:22 *359:18 0
85 *339:22 *359:22 0
86 *358:14 *359:18 7.60896e-05
*RES
1 *1663:Y *359:8 5.6175 
2 *359:8 *359:18 49.7275 
3 *359:18 *359:20 0.795 
4 *359:20 *359:22 6.48 
5 *359:22 *359:32 10.5247 
6 *359:32 *1687:S 5.3625 
7 *359:32 *359:49 5.1963 
8 *359:49 *1664:A 5.43 
9 *359:49 *1691:S 11.175 
10 *359:22 *1683:S 4.05 
11 *359:20 *1689:S 5.085 
12 *359:8 *359:95 8.87013 
13 *359:95 *1685:S 4.83663 
14 *359:95 *1693:S 10.7075 
*END

*D_NET *360 0.0419947
*CONN
*I *1679:S I *D sky130_fd_sc_hd__mux2_1
*I *1681:S I *D sky130_fd_sc_hd__mux2_1
*I *1674:B1 I *D sky130_fd_sc_hd__a2bb2o_1
*I *1667:A1 I *D sky130_fd_sc_hd__o21ai_1
*I *1675:S I *D sky130_fd_sc_hd__mux2_1
*I *1669:S I *D sky130_fd_sc_hd__mux2_1
*I *1671:A1 I *D sky130_fd_sc_hd__a22o_1
*I *1668:B1 I *D sky130_fd_sc_hd__a32o_1
*I *1672:S I *D sky130_fd_sc_hd__mux2_1
*I *1677:S I *D sky130_fd_sc_hd__mux2_1
*I *1664:X O *D sky130_fd_sc_hd__buf_4
*CAP
1 *1679:S 0.000258734
2 *1681:S 0.000231732
3 *1674:B1 0.000119585
4 *1667:A1 6.35021e-05
5 *1675:S 0.000130867
6 *1669:S 0
7 *1671:A1 0.000855764
8 *1668:B1 0.000170599
9 *1672:S 0.000335798
10 *1677:S 0
11 *1664:X 0.000115236
12 *360:168 0.00276158
13 *360:147 0.00251789
14 *360:132 0.000981678
15 *360:113 0.00195087
16 *360:74 0.00622579
17 *360:45 0.00558938
18 *360:41 0.000400883
19 *360:24 0.00325964
20 *360:12 0.00405718
21 *1667:A1 *1674:A2_N 5.83121e-06
22 *1668:B1 *1668:A3 3.00939e-05
23 *1668:B1 *1668:B2 0.000273352
24 *1671:A1 *1668:B2 0.000224406
25 *1671:A1 *1671:A2 3.5678e-06
26 *1671:A1 *381:73 8.59391e-05
27 *1672:S *1672:A1 4.99619e-05
28 *1672:S *1673:A 0.00012657
29 *1672:S *1731:A 0
30 *1672:S *1850:A 0
31 *1672:S *382:117 0.000433003
32 *1674:B1 *1674:A2_N 0.00011588
33 *1679:S *1679:A1 3.78953e-05
34 *1679:S *1680:A 5.11067e-05
35 *1679:S *1681:A1 1.79174e-05
36 *1681:S *1680:A 2.67022e-05
37 *1681:S *1781:CLK 0
38 *1681:S *1891:A 9.40993e-05
39 *360:12 *1795:CLK 5.1973e-05
40 *360:24 *1653:A1 0.000193854
41 *360:24 *1655:A1 0.000147489
42 *360:24 *1793:CLK 1.74869e-05
43 *360:24 *1838:A 0
44 *360:24 *1893:A 0
45 *360:24 *382:76 0.000141599
46 *360:24 *382:92 0.00157944
47 *360:24 *408:28 0.000593648
48 *360:41 *1669:A1 8.65905e-05
49 *360:41 *1670:A 0.000161767
50 *360:41 *1677:A1 4.53086e-05
51 *360:41 *1838:A 0.000162409
52 *360:74 *1649:A1 3.96676e-05
53 *360:74 *1653:A1 2.38643e-05
54 *360:74 *408:28 0
55 *360:113 *1642:A0 2.54606e-05
56 *360:113 *1642:A1 7.4027e-05
57 *360:113 *1885:A 0
58 *360:113 *382:76 0
59 *360:113 *387:76 0.000301664
60 *360:113 *387:93 0.00030498
61 *360:113 *387:115 0
62 *360:132 *1642:A0 0
63 *360:132 *1674:A2_N 9.9468e-05
64 *360:132 *1789:CLK 0
65 *360:132 *382:53 0
66 *360:132 *382:76 0.000124427
67 *360:147 *1642:A0 0
68 *360:147 *1674:A2_N 9.30717e-05
69 *360:147 *1674:B2 0
70 *360:147 *1813:CLK 5.23362e-05
71 *360:147 *382:53 0
72 *360:168 *1583:A1_N 7.63204e-05
73 *360:168 *1659:A1 0.00103851
74 *360:168 *1674:A2_N 6.07575e-06
75 *360:168 *1681:A1 3.06569e-06
76 *360:168 *1813:CLK 4.8854e-05
77 *360:168 *1831:A 7.5431e-05
78 *360:168 *1891:A 6.18661e-05
79 *360:168 *383:25 0.000293086
80 *360:168 *416:6 3.33839e-05
81 *360:168 *474:25 0
82 *360:168 *475:8 5.13124e-05
83 *360:168 *475:14 8.92401e-05
84 *1532:B1 *1671:A1 0.000729988
85 *1532:B1 *360:74 4.61701e-06
86 *1578:B *360:168 0
87 *1583:B2 *360:168 9.12857e-06
88 *1617:B1_N *360:132 0
89 *1664:A *360:12 8.52845e-05
90 *1667:A2 *1667:A1 1.85674e-05
91 *1671:B1 *1671:A1 3.6042e-05
92 *1672:A0 *360:41 0.000301193
93 *1674:A1_N *360:132 0
94 *1674:A1_N *360:168 1.44308e-05
95 *1675:A0 *1675:S 0.00026893
96 *1675:A0 *360:113 0.000271694
97 *1677:A0 *360:41 0
98 *1691:S *360:12 2.7784e-05
99 *1691:S *360:113 0.000518349
100 *1771:RESET_B *1671:A1 9.08317e-05
101 *1780:D *360:168 3.64998e-06
102 *1785:D *1672:S 3.23663e-05
103 *1787:RESET_B *1672:S 0
104 *1789:D *360:132 9.46996e-05
105 *1795:D *360:24 3.20545e-05
106 *1795:D *360:113 5.07376e-05
107 *1798:RESET_B *360:113 8.82858e-05
108 *1808:D *360:132 6.47357e-05
109 *1813:RESET_B *360:168 0.000163012
110 *1821:A *360:24 0.000612021
111 *256:59 *1671:A1 0.000389836
112 *259:102 *1671:A1 0
113 *259:102 *360:74 9.82856e-06
114 *303:145 *360:168 0.000105875
115 *314:73 *360:24 0.000129173
116 *314:109 *360:41 6.44082e-05
117 *339:61 *360:113 6.55406e-05
118 *359:8 *1671:A1 0
119 *359:18 *1671:A1 0
120 *359:49 *360:24 0
121 *359:49 *360:113 1.09565e-05
*RES
1 *1664:X *360:12 5.805 
2 *360:12 *360:24 13.2073 
3 *360:24 *1677:S 3.6 
4 *360:24 *360:41 10.235 
5 *360:41 *360:45 2.7425 
6 *360:45 *1672:S 11.0475 
7 *360:45 *360:74 12.1568 
8 *360:74 *1668:B1 4.6375 
9 *360:74 *1671:A1 24.38 
10 *360:41 *1669:S 1.6 
11 *360:12 *360:113 25.985 
12 *360:113 *1675:S 4.12 
13 *360:113 *360:132 16.22 
14 *360:132 *1667:A1 4.665 
15 *360:132 *360:147 4.145 
16 *360:147 *1674:B1 4.045 
17 *360:147 *360:168 44.98 
18 *360:168 *1681:S 9.335 
19 *360:168 *1679:S 6.205 
*END

*D_NET *361 0.0144403
*CONN
*I *1674:A2_N I *D sky130_fd_sc_hd__a2bb2o_1
*I *1666:A2 I *D sky130_fd_sc_hd__o21ai_1
*I *1665:X O *D sky130_fd_sc_hd__or4b_2
*CAP
1 *1674:A2_N 0.000336546
2 *1666:A2 0
3 *1665:X 0.00280984
4 *361:42 0.00172339
5 *361:36 0.00419668
6 *1674:A2_N *1667:B1 9.55816e-05
7 *1674:A2_N *1813:CLK 5.83121e-06
8 *1674:A2_N *382:53 2.49909e-05
9 *361:36 *1662:D_N 5.53249e-06
10 *361:36 *1697:A 1.7457e-05
11 *361:36 *1704:B1 0.000118081
12 *361:36 *482:38 0.000114492
13 *361:36 *482:44 6.54287e-06
14 *361:36 *482:48 0.0002044
15 *361:36 *494:23 3.72952e-05
16 *361:36 *494:32 5.38986e-05
17 *361:36 *494:43 0.000178512
18 *361:42 *1587:B2 0.000240349
19 *361:42 *1666:B1 0.0006117
20 *361:42 *1667:B1 2.01504e-05
21 *361:42 *1790:CLK 0.00049941
22 *361:42 *383:156 0.000118829
23 *1441:B *361:36 0
24 *1450:B1 *361:36 8.41015e-06
25 *1467:A2 *361:36 0.000119243
26 *1472:B1 *361:36 9.12495e-06
27 *1472:B2 *361:36 0.000349592
28 *1474:A1 *361:36 3.81651e-05
29 *1528:B *361:42 0.000198429
30 *1666:A1 *361:42 9.80943e-06
31 *1667:A1 *1674:A2_N 5.83121e-06
32 *1667:A2 *1674:A2_N 3.04704e-05
33 *1674:A1_N *1674:A2_N 0.00041574
34 *1674:B1 *1674:A2_N 0.00011588
35 *1790:D *361:42 9.2741e-05
36 *172:48 *361:36 8.20852e-05
37 *173:20 *361:42 0.000790082
38 *173:30 *361:42 0.000217592
39 *174:27 *361:36 0.000275939
40 *255:8 *361:42 4.41506e-05
41 *306:12 *361:42 1.43191e-05
42 *339:16 *361:36 4.55864e-06
43 *360:132 *1674:A2_N 9.9468e-05
44 *360:147 *1674:A2_N 9.30717e-05
45 *360:168 *1674:A2_N 6.07575e-06
*RES
1 *1665:X *361:36 30.5527 
2 *361:36 *361:42 29.115 
3 *361:42 *1666:A2 1.6 
4 *361:42 *1674:A2_N 13.85 
*END

*D_NET *362 0.000325289
*CONN
*I *1667:B1 I *D sky130_fd_sc_hd__o21ai_1
*I *1666:Y O *D sky130_fd_sc_hd__o21ai_1
*CAP
1 *1667:B1 3.47912e-05
2 *1666:Y 3.47912e-05
3 *1667:B1 *1666:B1 3.26889e-05
4 *1666:A1 *1667:B1 8.52845e-05
5 *1667:A2 *1667:B1 2.20014e-05
6 *1674:A2_N *1667:B1 9.55816e-05
7 *361:42 *1667:B1 2.01504e-05
*RES
1 *1666:Y *1667:B1 4.7 
*END

*D_NET *363 0.000901283
*CONN
*I *1670:A I *D sky130_fd_sc_hd__clkbuf_1
*I *1669:X O *D sky130_fd_sc_hd__mux2_1
*CAP
1 *1670:A 0.000127393
2 *1669:X 0.000127393
3 *1670:A *1677:A1 0.000311659
4 *1670:A *1838:A 0.000162409
5 *314:109 *1670:A 1.06624e-05
6 *360:41 *1670:A 0.000161767
*RES
1 *1669:X *1670:A 7.37 
*END

*D_NET *364 0.000331157
*CONN
*I *1673:A I *D sky130_fd_sc_hd__clkbuf_1
*I *1672:X O *D sky130_fd_sc_hd__mux2_1
*CAP
1 *1673:A 8.72744e-05
2 *1672:X 8.72744e-05
3 *1672:S *1673:A 0.00012657
4 *1785:D *1673:A 3.00381e-05
*RES
1 *1672:X *1673:A 5.405 
*END

*D_NET *365 0.000274592
*CONN
*I *1676:A I *D sky130_fd_sc_hd__clkbuf_1
*I *1675:X O *D sky130_fd_sc_hd__mux2_1
*CAP
1 *1676:A 0.000137296
2 *1675:X 0.000137296
*RES
1 *1675:X *1676:A 5.3 
*END

*D_NET *366 0.00132275
*CONN
*I *1678:A I *D sky130_fd_sc_hd__clkbuf_1
*I *1677:X O *D sky130_fd_sc_hd__mux2_1
*CAP
1 *1678:A 0.000379895
2 *1677:X 0.000379895
3 *1678:A *1731:A 0.000385986
4 *1678:A *1782:CLK 0.000160791
5 *1678:A *486:18 0
6 *1782:D *1678:A 1.61831e-05
*RES
1 *1677:X *1678:A 13.035 
*END

*D_NET *367 0.000434393
*CONN
*I *1680:A I *D sky130_fd_sc_hd__clkbuf_1
*I *1679:X O *D sky130_fd_sc_hd__mux2_1
*CAP
1 *1680:A 0.000178292
2 *1679:X 0.000178292
3 *1680:A *1891:A 0
4 *1679:S *1680:A 5.11067e-05
5 *1681:S *1680:A 2.67022e-05
*RES
1 *1679:X *1680:A 9.975 
*END

*D_NET *368 0.000359681
*CONN
*I *1682:A I *D sky130_fd_sc_hd__clkbuf_1
*I *1681:X O *D sky130_fd_sc_hd__mux2_1
*CAP
1 *1682:A 0.00017984
2 *1681:X 0.00017984
*RES
1 *1681:X *1682:A 5.99 
*END

*D_NET *369 0.000689036
*CONN
*I *1684:A I *D sky130_fd_sc_hd__clkbuf_1
*I *1683:X O *D sky130_fd_sc_hd__mux2_1
*CAP
1 *1684:A 0.000187249
2 *1683:X 0.000187249
3 *1684:A *1683:A0 1.01551e-05
4 *1684:A *1689:A0 0.000172834
5 *1684:A *388:94 5.14627e-05
6 *1684:A *388:105 4.28778e-05
7 *1779:D *1684:A 3.72081e-05
*RES
1 *1683:X *1684:A 11.67 
*END

*D_NET *370 0.000176582
*CONN
*I *1686:A I *D sky130_fd_sc_hd__clkbuf_1
*I *1685:X O *D sky130_fd_sc_hd__mux2_1
*CAP
1 *1686:A 8.8291e-05
2 *1685:X 8.8291e-05
*RES
1 *1685:X *1686:A 4.61 
*END

*D_NET *371 0.000164883
*CONN
*I *1688:A I *D sky130_fd_sc_hd__clkbuf_1
*I *1687:X O *D sky130_fd_sc_hd__mux2_1
*CAP
1 *1688:A 3.83866e-05
2 *1687:X 3.83866e-05
3 *1688:A *1687:A0 0
4 *1688:A *383:99 3.91801e-05
5 *1688:A *487:43 4.89295e-05
*RES
1 *1687:X *1688:A 4.265 
*END

*D_NET *372 0.00099835
*CONN
*I *1690:A I *D sky130_fd_sc_hd__clkbuf_1
*I *1689:X O *D sky130_fd_sc_hd__mux2_1
*CAP
1 *1690:A 0.000177905
2 *1689:X 0.000177905
3 *1690:A *1689:A0 0.000122331
4 *1690:A *1776:CLK 0.000424233
5 *1776:D *1690:A 9.59764e-05
*RES
1 *1689:X *1690:A 7.925 
*END

*D_NET *373 0.000323458
*CONN
*I *1692:A I *D sky130_fd_sc_hd__clkbuf_1
*I *1691:X O *D sky130_fd_sc_hd__mux2_1
*CAP
1 *1692:A 0.000161729
2 *1691:X 0.000161729
*RES
1 *1691:X *1692:A 5.645 
*END

*D_NET *374 0.000964483
*CONN
*I *1694:A I *D sky130_fd_sc_hd__clkbuf_1
*I *1693:X O *D sky130_fd_sc_hd__mux2_1
*CAP
1 *1694:A 0.000346242
2 *1693:X 0.000346242
3 *1694:A *1685:A0 4.05358e-05
4 *1694:A *1716:A 8.35118e-05
5 *1694:A *381:14 0.000121036
6 *1774:RESET_B *1694:A 2.69153e-05
*RES
1 *1693:X *1694:A 13.29 
*END

*D_NET *375 0.00172984
*CONN
*I *1702:A I *D sky130_fd_sc_hd__nand2_1
*I *1698:B1 I *D sky130_fd_sc_hd__o21ai_1
*I *1699:A2 I *D sky130_fd_sc_hd__o21ai_1
*I *1697:X O *D sky130_fd_sc_hd__or4_1
*CAP
1 *1702:A 9.61372e-05
2 *1698:B1 2.80077e-05
3 *1699:A2 0
4 *1697:X 0.000169561
5 *375:14 7.5131e-05
6 *375:12 0.000312822
7 *1698:B1 *1698:A1 2.87686e-05
8 *1698:B1 *1699:A1 9.13949e-06
9 *1698:B1 *1699:B1 9.15785e-05
10 *1698:B1 *422:14 2.20014e-05
11 *1702:A *1699:B1 5.12969e-06
12 *1702:A *1702:B 4.77757e-05
13 *1702:A *422:14 5.73313e-05
14 *375:12 *1662:D_N 0.000105667
15 *375:12 *1697:A 4.79369e-05
16 *375:12 *1702:B 0.000276754
17 *375:12 *1769:CLK 0.00015356
18 *375:14 *1699:B1 4.40028e-05
19 *375:14 *422:14 0.000158532
*RES
1 *1697:X *375:12 9.815 
2 *375:12 *375:14 1.485 
3 *375:14 *1699:A2 1.6 
4 *375:14 *1698:B1 2.755 
5 *375:12 *1702:A 3.805 
*END

*D_NET *376 0.000445217
*CONN
*I *1699:B1 I *D sky130_fd_sc_hd__o21ai_1
*I *1698:Y O *D sky130_fd_sc_hd__o21ai_1
*CAP
1 *1699:B1 6.54862e-05
2 *1698:Y 6.54862e-05
3 *1699:B1 *1698:A1 1.32102e-05
4 *1698:B1 *1699:B1 9.15785e-05
5 *1702:A *1699:B1 5.12969e-06
6 *1770:D *1699:B1 0.000160323
7 *375:14 *1699:B1 4.40028e-05
*RES
1 *1698:Y *1699:B1 5.39 
*END

*D_NET *377 0.0037555
*CONN
*I *1701:A2 I *D sky130_fd_sc_hd__o211ai_1
*I *1704:A2 I *D sky130_fd_sc_hd__o21ai_1
*I *1705:B1_N I *D sky130_fd_sc_hd__a21bo_1
*I *1700:X O *D sky130_fd_sc_hd__or2_1
*CAP
1 *1701:A2 0.000200594
2 *1704:A2 0
3 *1705:B1_N 0.000430724
4 *1700:X 8.23275e-05
5 *377:10 0.000589077
6 *377:6 0.000441274
7 *1701:A2 *1665:A 9.12494e-06
8 *1701:A2 *495:38 1.31901e-05
9 *1705:B1_N *1705:A1 9.2954e-05
10 *1705:B1_N *1858:A 0.000122797
11 *1705:B1_N *381:110 0.000297098
12 *1705:B1_N *381:116 4.66108e-05
13 *377:10 *1749:A 1.46411e-05
14 *377:10 *381:110 0.000102419
15 *1705:A2 *1705:B1_N 0.000160641
16 *1767:D *1705:B1_N 0.000272984
17 *1767:RESET_B *1705:B1_N 0.000269478
18 *1768:D *1705:B1_N 0.000118527
19 *339:139 *1701:A2 0.000368244
20 *339:139 *377:6 0.000122797
*RES
1 *1700:X *377:6 2.74 
2 *377:6 *377:10 4.91 
3 *377:10 *1705:B1_N 14.73 
4 *377:10 *1704:A2 3.6 
5 *377:6 *1701:A2 9.815 
*END

*D_NET *378 0.00152993
*CONN
*I *1702:B I *D sky130_fd_sc_hd__nand2_1
*I *1701:Y O *D sky130_fd_sc_hd__o211ai_1
*CAP
1 *1702:B 0.000306957
2 *1701:Y 0.000306957
3 *1702:B *1665:B 0.000193674
4 *1702:B *1697:A 0.000344347
5 *1702:B *422:14 4.77757e-05
6 *1702:B *495:61 5.68523e-06
7 *1702:A *1702:B 4.77757e-05
8 *375:12 *1702:B 0.000276754
*RES
1 *1701:Y *1702:B 14.64 
*END

*D_NET *379 0.000859874
*CONN
*I *1704:B1 I *D sky130_fd_sc_hd__o21ai_1
*I *1703:Y O *D sky130_fd_sc_hd__o211ai_1
*CAP
1 *1704:B1 0.0002454
2 *1703:Y 0.0002454
3 *1704:B1 *1703:A1 0.000171351
4 *1704:B1 *1703:B1 1.05984e-05
5 *1704:B1 *428:6 6.90438e-05
6 *361:36 *1704:B1 0.000118081
*RES
1 *1703:Y *1704:B1 7.805 
*END

*D_NET *380 0.0159499
*CONN
*I *1765:A I *D sky130_fd_sc_hd__inv_2
*I *1766:A I *D sky130_fd_sc_hd__inv_2
*I *1763:A I *D sky130_fd_sc_hd__inv_2
*I *1764:A I *D sky130_fd_sc_hd__inv_2
*I *1719:A I *D sky130_fd_sc_hd__clkbuf_8
*I *1752:A I *D sky130_fd_sc_hd__clkbuf_8
*I *1708:A I *D sky130_fd_sc_hd__clkbuf_8
*I *1730:A I *D sky130_fd_sc_hd__clkbuf_8
*I *1741:A I *D sky130_fd_sc_hd__clkbuf_8
*I *1707:X O *D sky130_fd_sc_hd__buf_4
*CAP
1 *1765:A 0.000256222
2 *1766:A 0
3 *1763:A 0
4 *1764:A 0.000217133
5 *1719:A 0
6 *1752:A 0.000372818
7 *1708:A 3.37585e-05
8 *1730:A 0.000243606
9 *1741:A 0
10 *1707:X 0.000410666
11 *380:103 0.000782852
12 *380:69 0.000233418
13 *380:67 0.00300389
14 *380:54 0.0025653
15 *380:38 0.000406577
16 *380:24 0.000593948
17 *380:18 0.000747902
18 *380:14 0.000912557
19 *1730:A *384:12 0.000194449
20 *1752:A *381:6 0.00016031
21 *1752:A *381:54 0.00025842
22 *1764:A *1519:A 0
23 *1764:A *1661:A1 0
24 *1764:A *1724:A 0
25 *1765:A *1524:A 0.000484132
26 *1765:A *1786:CLK 0.000262634
27 *380:14 *1880:A 0
28 *380:18 *1880:A 0
29 *380:18 *1889:A 0
30 *380:24 *1839:A 0
31 *380:24 *1880:A 0
32 *380:24 *1889:A 0
33 *380:24 *382:32 0.000207226
34 *380:24 *384:12 4.80285e-05
35 *380:67 *1817:CLK 1.77665e-05
36 *380:67 *382:155 0.00079103
37 *380:67 *382:170 0.000195266
38 *380:103 *1518:A 2.8531e-05
39 *380:103 *1524:A 0.000303374
40 *380:103 *1661:A1 2.03131e-05
41 *380:103 *1786:CLK 0.000196058
42 *1514:B *380:67 7.19909e-05
43 *1514:B *380:69 2.10905e-05
44 *1514:B *380:103 5.56228e-05
45 *1542:A1_N *380:103 0
46 *1552:A *1764:A 4.55864e-06
47 *1552:B *380:69 4.77769e-05
48 *1570:B1 *380:67 6.43093e-05
49 *1572:A *380:67 4.40693e-06
50 *1817:D *380:67 0.000122101
51 *1817:RESET_B *380:67 0.000377357
52 *1817:RESET_B *380:69 4.77807e-05
53 *1818:D *1764:A 5.62014e-05
54 *1818:RESET_B *1764:A 0.000140782
55 *161:86 *380:103 0.000618714
56 *245:12 *380:103 0.00012398
57 *251:6 *380:103 0.000122202
58 *251:16 *380:103 0.000122821
*RES
1 *1707:X *380:14 11.9 
2 *380:14 *380:18 8.735 
3 *380:18 *380:24 8.51 
4 *380:24 *1741:A 1.6 
5 *380:24 *1730:A 5.5 
6 *380:18 *380:38 2 
7 *380:38 *1708:A 2.05 
8 *380:38 *1752:A 8.26 
9 *380:14 *380:54 1.485 
10 *380:54 *1719:A 1.6 
11 *380:54 *380:67 33.27 
12 *380:67 *380:69 0.795 
13 *380:69 *1764:A 9.785 
14 *380:69 *1763:A 1.6 
15 *380:67 *380:103 16.96 
16 *380:103 *1766:A 1.6 
17 *380:103 *1765:A 12.305 
*END

*D_NET *381 0.0331819
*CONN
*I *1712:A I *D sky130_fd_sc_hd__inv_2
*I *1711:A I *D sky130_fd_sc_hd__inv_2
*I *1710:A I *D sky130_fd_sc_hd__inv_2
*I *1709:A I *D sky130_fd_sc_hd__inv_2
*I *1714:A I *D sky130_fd_sc_hd__inv_2
*I *1718:A I *D sky130_fd_sc_hd__inv_2
*I *1715:A I *D sky130_fd_sc_hd__inv_2
*I *1713:A I *D sky130_fd_sc_hd__inv_2
*I *1717:A I *D sky130_fd_sc_hd__inv_2
*I *1716:A I *D sky130_fd_sc_hd__inv_2
*I *1708:X O *D sky130_fd_sc_hd__clkbuf_8
*CAP
1 *1712:A 5.96337e-05
2 *1711:A 0
3 *1710:A 0
4 *1709:A 0
5 *1714:A 0
6 *1718:A 0.000620025
7 *1715:A 2.98392e-05
8 *1713:A 2.0132e-05
9 *1717:A 0.00139845
10 *1716:A 4.23309e-05
11 *1708:X 6.71146e-05
12 *381:116 0.001081
13 *381:110 0.000715832
14 *381:100 0.000592097
15 *381:94 0.000426181
16 *381:90 0.00069901
17 *381:73 0.00127789
18 *381:56 0.00118745
19 *381:54 0.00223675
20 *381:14 0.00224666
21 *381:6 0.00264005
22 *1715:A *420:16 1.75875e-05
23 *1717:A *1685:A0 0.00194717
24 *1717:A *1747:A 0
25 *1717:A *1842:A 5.2431e-05
26 *1717:A *1886:A 0.000238034
27 *1717:A *382:32 0.00070422
28 *1717:A *384:12 0.000226376
29 *1717:A *384:14 0.000228591
30 *1717:A *387:125 0
31 *1717:A *489:18 0.00106216
32 *1718:A *1689:A1 4.77757e-05
33 *1718:A *470:12 6.74079e-05
34 *381:14 *1685:A0 0
35 *381:14 *1693:A1 2.30258e-05
36 *381:14 *1839:A 0
37 *381:14 *1889:A 0
38 *381:14 *382:16 0.000137571
39 *381:14 *384:108 1.88602e-05
40 *381:14 *389:90 9.89364e-05
41 *381:14 *389:98 0
42 *381:14 *389:128 1.07797e-05
43 *381:14 *403:12 0
44 *381:54 *1575:A1 4.66108e-05
45 *381:54 *1831:A 0.0001249
46 *381:73 *1663:B 8.57024e-05
47 *381:73 *1671:B2 8.40178e-05
48 *381:73 *1695:A1 2.93517e-05
49 *381:73 *1706:A2 9.82856e-06
50 *381:73 *420:16 0.000865895
51 *381:73 *420:29 3.33186e-05
52 *381:73 *493:14 1.34594e-05
53 *381:90 *1628:A0 0
54 *381:90 *1695:A1 6.34651e-05
55 *381:90 *1769:CLK 0
56 *381:90 *1773:CLK 0
57 *381:90 *1837:A 4.66108e-05
58 *381:94 *1749:A 0.000112515
59 *381:94 *1890:A 0
60 *381:94 *422:14 2.87867e-05
61 *381:100 *1701:A1 6.74916e-06
62 *381:100 *1749:A 0.000380479
63 *381:100 *400:22 0.000114024
64 *381:100 *495:21 8.53113e-06
65 *381:100 *495:38 0.000311324
66 *381:110 *1749:A 0.000515794
67 *381:110 *400:22 4.66108e-05
68 *381:110 *482:38 0.000264077
69 *381:116 *1705:A1 5.83121e-06
70 *381:116 *388:152 0.000158559
71 *381:116 *388:163 0.000215623
72 *381:116 *470:12 0.000100308
73 *381:116 *482:38 6.13327e-05
74 *1533:A *381:56 0.00010952
75 *1548:A1 *381:54 0.000572609
76 *1550:A2 *381:54 6.1357e-05
77 *1575:B1 *381:54 0.00015896
78 *1576:B2 *381:54 9.27495e-05
79 *1628:S *381:90 5.10957e-05
80 *1630:S *381:116 9.47972e-06
81 *1671:A1 *381:73 8.59391e-05
82 *1693:S *381:14 0.000568808
83 *1694:A *1716:A 8.35118e-05
84 *1694:A *381:14 0.000121036
85 *1705:B1_N *381:110 0.000297098
86 *1705:B1_N *381:116 4.66108e-05
87 *1752:A *381:6 0.00016031
88 *1752:A *381:54 0.00025842
89 *1768:D *381:110 0.000118527
90 *1769:RESET_B *381:100 3.50571e-05
91 *1770:RESET_B *1712:A 0.000163204
92 *1770:RESET_B *381:90 0.00023301
93 *1771:RESET_B *381:56 5.83121e-06
94 *1771:RESET_B *381:73 0.000180647
95 *1772:RESET_B *381:116 8.82858e-05
96 *1775:D *1717:A 0
97 *1775:RESET_B *1717:A 0.000453436
98 *1802:RESET_B *1717:A 5.92849e-05
99 *1803:RESET_B *1717:A 9.16237e-05
100 *1805:D *381:90 0.000139245
101 *1895:A *381:90 0
102 *149:74 *381:54 4.82919e-05
103 *149:85 *381:54 1.12578e-05
104 *153:43 *381:54 2.16833e-05
105 *153:95 *381:54 0.000163269
106 *251:16 *381:54 0
107 *259:14 *381:56 0.000675838
108 *259:18 *381:56 0.000303268
109 *259:24 *381:54 0.00112157
110 *266:155 *381:54 0.000199734
111 *278:42 *381:54 0.00112458
112 *278:111 *381:56 0.000964956
113 *339:22 *1718:A 0
114 *339:22 *381:116 0
115 *339:139 *381:100 5.83121e-06
116 *339:139 *381:110 2.49909e-05
117 *339:154 *381:90 0.000182978
118 *359:8 *381:73 3.05373e-05
119 *377:10 *381:110 0.000102419
*RES
1 *1708:X *381:6 3.085 
2 *381:6 *381:14 19.81 
3 *381:14 *1716:A 2.395 
4 *381:14 *1717:A 49.1 
5 *381:6 *381:54 42.07 
6 *381:54 *381:56 13.905 
7 *381:56 *1713:A 1.96 
8 *381:56 *381:73 18.655 
9 *381:73 *1715:A 2.215 
10 *381:73 *381:90 15.415 
11 *381:90 *381:94 4.4 
12 *381:94 *381:100 11.405 
13 *381:100 *381:110 12.94 
14 *381:110 *381:116 13.01 
15 *381:116 *1718:A 14.1 
16 *381:116 *1714:A 3.6 
17 *381:110 *1709:A 1.6 
18 *381:100 *1710:A 1.6 
19 *381:94 *1711:A 3.6 
20 *381:90 *1712:A 3.085 
*END

*D_NET *382 0.0388055
*CONN
*I *1729:A I *D sky130_fd_sc_hd__inv_2
*I *1724:A I *D sky130_fd_sc_hd__inv_2
*I *1723:A I *D sky130_fd_sc_hd__inv_2
*I *1721:A I *D sky130_fd_sc_hd__inv_2
*I *1720:A I *D sky130_fd_sc_hd__inv_2
*I *1722:A I *D sky130_fd_sc_hd__inv_2
*I *1728:A I *D sky130_fd_sc_hd__inv_2
*I *1725:A I *D sky130_fd_sc_hd__inv_2
*I *1726:A I *D sky130_fd_sc_hd__inv_2
*I *1727:A I *D sky130_fd_sc_hd__inv_2
*I *1719:X O *D sky130_fd_sc_hd__clkbuf_8
*CAP
1 *1729:A 0.00281025
2 *1724:A 0.000282104
3 *1723:A 0
4 *1721:A 0
5 *1720:A 0.000107875
6 *1722:A 0.000319209
7 *1728:A 0.000231295
8 *1725:A 0.000113261
9 *1726:A 0
10 *1727:A 6.08123e-05
11 *1719:X 0
12 *382:170 0.00479936
13 *382:155 0.00201745
14 *382:117 0.00128615
15 *382:92 0.00152954
16 *382:84 0.00104592
17 *382:76 0.00275554
18 *382:53 0.00308845
19 *382:32 0.00131736
20 *382:16 0.00111705
21 *382:4 0.000761276
22 *1720:A *1687:A1 0
23 *1720:A *1888:A 3.86697e-05
24 *1722:A *1689:A0 0.000166903
25 *1724:A *1560:A1 0
26 *1724:A *1818:CLK 0.000172247
27 *1725:A *1657:A1 4.77719e-05
28 *1729:A *1636:A0 0
29 *1729:A *1786:CLK 0.000212044
30 *382:16 *1889:A 0
31 *382:16 *389:107 0.000122011
32 *382:16 *389:128 0.000538
33 *382:32 *1685:A0 0.000364034
34 *382:32 *1778:CLK 8.23457e-05
35 *382:32 *1839:A 0.000127698
36 *382:32 *1880:A 0
37 *382:32 *384:12 0.000523028
38 *382:32 *389:98 0
39 *382:32 *389:107 4.77757e-05
40 *382:53 *1674:B2 4.43871e-06
41 *382:53 *1685:A0 0.000603229
42 *382:53 *1789:CLK 0.000361615
43 *382:53 *1894:A 0.000265496
44 *382:76 *1634:A1 0
45 *382:76 *1654:A1 3.72916e-05
46 *382:76 *1654:B2 3.00381e-05
47 *382:76 *1655:A1 0.000435235
48 *382:76 *1685:A0 0
49 *382:76 *1840:A 0.000197836
50 *382:76 *384:43 6.67184e-05
51 *382:76 *387:115 0.000131261
52 *382:76 *489:18 0
53 *382:84 *1777:CLK 0.000461897
54 *382:92 *408:28 0.000476867
55 *382:117 *1672:A1 0.000243067
56 *382:117 *1689:A0 0.0017428
57 *382:117 *418:8 5.27366e-05
58 *1571:A *382:170 8.05732e-05
59 *1655:B1 *382:76 4.4675e-05
60 *1672:S *382:117 0.000433003
61 *1674:A1_N *382:53 2.15271e-05
62 *1674:A2_N *382:53 2.49909e-05
63 *1685:S *382:32 0
64 *1717:A *382:32 0.00070422
65 *1764:A *1724:A 0
66 *1774:RESET_B *382:32 0.000141599
67 *1777:RESET_B *1720:A 9.17261e-05
68 *1778:RESET_B *382:16 4.89295e-05
69 *1778:RESET_B *382:32 0.000121815
70 *1779:RESET_B *1722:A 0.000160266
71 *1781:RESET_B *1724:A 4.99619e-05
72 *1782:RESET_B *1725:A 5.04446e-05
73 *1782:RESET_B *382:92 4.98637e-05
74 *1783:RESET_B *382:76 4.89395e-05
75 *1784:D *1727:A 7.22354e-05
76 *1784:RESET_B *1727:A 3.31103e-05
77 *1784:RESET_B *382:32 0.000162325
78 *1786:RESET_B *1729:A 0.000147989
79 *1798:D *382:76 7.4027e-05
80 *1818:D *1724:A 0
81 *149:118 *1729:A 6.20044e-05
82 *162:112 *1729:A 0.00015664
83 *162:126 *1729:A 4.73561e-05
84 *162:126 *382:170 7.23622e-05
85 *266:67 *1720:A 0.000108975
86 *266:67 *382:84 0.000188293
87 *314:73 *382:76 0.000239813
88 *314:73 *382:84 0.000603253
89 *339:22 *1722:A 0
90 *359:22 *1722:A 0.000374117
91 *359:32 *1722:A 1.79483e-05
92 *359:49 *382:76 0
93 *360:24 *382:76 0.000141599
94 *360:24 *382:92 0.00157944
95 *360:113 *382:76 0
96 *360:132 *382:53 0
97 *360:132 *382:76 0.000124427
98 *360:147 *382:53 0
99 *380:24 *382:32 0.000207226
100 *380:67 *382:155 0.00079103
101 *380:67 *382:170 0.000195266
102 *381:14 *382:16 0.000137571
*RES
1 *1719:X *382:4 1.6 
2 *382:4 *382:16 14.305 
3 *382:16 *382:32 26.005 
4 *382:32 *1727:A 3.085 
5 *382:32 *382:53 18.655 
6 *382:53 *1726:A 1.6 
7 *382:53 *382:76 49.015 
8 *382:76 *382:84 12.1025 
9 *382:84 *382:92 4.08867 
10 *382:92 *1725:A 5.5575 
11 *382:92 *382:117 24.6775 
12 *382:117 *1728:A 6.81 
13 *382:117 *1722:A 11.865 
14 *382:84 *1720:A 6.4275 
15 *382:16 *1721:A 1.6 
16 *382:4 *382:155 7.35 
17 *382:155 *1723:A 1.6 
18 *382:155 *382:170 6.13383 
19 *382:170 *1724:A 9.2975 
20 *382:170 *1729:A 11.4434 
*END

*D_NET *383 0.0278908
*CONN
*I *1732:A I *D sky130_fd_sc_hd__inv_2
*I *1734:A I *D sky130_fd_sc_hd__inv_2
*I *1740:A I *D sky130_fd_sc_hd__inv_2
*I *1731:A I *D sky130_fd_sc_hd__inv_2
*I *1736:A I *D sky130_fd_sc_hd__inv_2
*I *1738:A I *D sky130_fd_sc_hd__inv_2
*I *1737:A I *D sky130_fd_sc_hd__inv_2
*I *1739:A I *D sky130_fd_sc_hd__inv_2
*I *1733:A I *D sky130_fd_sc_hd__inv_2
*I *1735:A I *D sky130_fd_sc_hd__inv_2
*I *1730:X O *D sky130_fd_sc_hd__clkbuf_8
*CAP
1 *1732:A 0.00184428
2 *1734:A 0
3 *1740:A 0.000261662
4 *1731:A 0.000545489
5 *1736:A 7.87918e-06
6 *1738:A 0
7 *1737:A 0
8 *1739:A 0
9 *1733:A 3.26438e-05
10 *1735:A 5.69429e-05
11 *1730:X 0.000411287
12 *383:156 0.0032826
13 *383:101 0.000572778
14 *383:99 0.00156327
15 *383:86 0.00191323
16 *383:61 0.00082928
17 *383:48 0.00200895
18 *383:31 0.00208656
19 *383:25 0.00213294
20 *383:12 0.000919626
21 *1731:A *1787:CLK 0.000117268
22 *1731:A *1838:A 3.86607e-05
23 *1731:A *1893:A 3.05295e-05
24 *1732:A *473:8 3.00381e-05
25 *1732:A *479:24 0.000390451
26 *1733:A *1848:A 3.64998e-06
27 *1740:A *1782:CLK 0.000105071
28 *1740:A *388:14 1.11746e-05
29 *1740:A *388:18 1.14299e-05
30 *1740:A *486:18 1.56296e-05
31 *383:12 *1642:A0 0.000121387
32 *383:12 *1693:A0 2.83135e-05
33 *383:12 *385:26 0.00030718
34 *383:12 *385:41 0.000250314
35 *383:12 *485:22 0.000100863
36 *383:25 *1849:A 0
37 *383:25 *474:25 0
38 *383:25 *485:22 0.000139772
39 *383:31 *1848:A 0.000173183
40 *383:31 *1849:A 0
41 *383:48 *1645:B2 0
42 *383:48 *1751:A 0
43 *383:48 *1827:A 4.40899e-05
44 *383:48 *1848:A 0
45 *383:48 *1857:A 0
46 *383:48 *384:54 0
47 *383:48 *461:14 0
48 *383:48 *461:27 0
49 *383:48 *489:10 0.000112589
50 *383:61 *387:52 5.14357e-05
51 *383:86 *1638:A0 2.23485e-05
52 *383:86 *1653:A1 0.000160314
53 *383:86 *1654:A1 0.000244575
54 *383:86 *1777:CLK 0
55 *383:86 *387:52 0.000108031
56 *383:86 *487:43 0.000345095
57 *383:86 *488:16 4.66108e-05
58 *383:99 *1653:A1 8.77516e-05
59 *383:99 *487:43 0.000337391
60 *383:156 *1658:A1 9.07407e-05
61 *383:156 *1742:A 4.82919e-05
62 *383:156 *1790:CLK 0.000290086
63 *383:156 *473:8 2.7441e-05
64 *1482:B *383:48 0
65 *1520:B1 *1732:A 0.000110897
66 *1521:A3 *1732:A 0
67 *1528:B *383:156 6.45562e-05
68 *1543:A *1732:A 4.69283e-06
69 *1557:A2 *1732:A 0.000138277
70 *1585:A1 *383:25 0
71 *1585:B1 *383:25 0.000110115
72 *1596:A *1732:A 0
73 *1617:A2 *383:48 0
74 *1624:A2 *383:48 0
75 *1625:A2 *383:48 0
76 *1645:A1_N *383:48 2.10433e-05
77 *1648:A2 *1740:A 3.70526e-06
78 *1649:B1 *1740:A 0.000276252
79 *1651:B1 *383:48 2.3228e-05
80 *1653:B1 *383:86 9.09788e-06
81 *1655:A2 *383:48 4.99619e-05
82 *1655:A2 *383:61 0.000225173
83 *1657:A2 *1740:A 1.03503e-05
84 *1657:B1 *1740:A 4.11499e-05
85 *1672:S *1731:A 0
86 *1677:A0 *1731:A 0.000163052
87 *1677:A0 *383:86 4.02438e-05
88 *1678:A *1731:A 0.000385986
89 *1688:A *383:99 3.91801e-05
90 *1787:D *1731:A 5.41483e-05
91 *1787:RESET_B *1731:A 7.4027e-05
92 *1789:RESET_B *1733:A 4.82919e-05
93 *1790:D *383:156 0.000128331
94 *1791:RESET_B *383:12 0.000157762
95 *1792:D *383:99 0.00011577
96 *1792:RESET_B *1736:A 4.99619e-05
97 *1792:RESET_B *383:99 3.75126e-05
98 *1794:D *383:86 0
99 *1795:RESET_B *383:48 4.77807e-05
100 *1795:RESET_B *383:61 5.41296e-05
101 *1796:RESET_B *1740:A 0.000153058
102 *1806:RESET_B *383:48 4.93336e-05
103 *1807:D *383:48 0
104 *1807:RESET_B *383:48 0
105 *1808:RESET_B *383:48 7.46947e-05
106 *1813:RESET_B *383:25 5.29629e-05
107 *1814:RESET_B *383:12 9.47454e-05
108 *151:74 *1732:A 0
109 *151:85 *1732:A 0
110 *161:66 *1732:A 0.000345642
111 *173:30 *383:48 0
112 *205:18 *1732:A 6.77827e-05
113 *247:19 *1732:A 9.50342e-06
114 *248:17 *1732:A 2.26468e-05
115 *255:8 *383:156 8.41307e-05
116 *259:129 *1740:A 4.19283e-05
117 *266:67 *383:86 0
118 *278:10 *1732:A 0.00044194
119 *278:71 *383:31 2.25075e-05
120 *303:20 *1740:A 5.18779e-05
121 *303:63 *383:99 2.23589e-05
122 *303:145 *383:25 0
123 *306:12 *383:156 0.000653565
124 *314:10 *383:156 0.000130445
125 *331:8 *1733:A 2.30292e-05
126 *331:8 *383:48 0.000142661
127 *349:16 *383:48 0.000148256
128 *360:168 *383:25 0.000293086
129 *361:42 *383:156 0.000118829
*RES
1 *1730:X *383:12 16.355 
2 *383:12 *1735:A 2.395 
3 *383:12 *383:25 11.705 
4 *383:25 *383:31 6.8 
5 *383:31 *1733:A 2.395 
6 *383:31 *383:48 35.29 
7 *383:48 *1739:A 1.6 
8 *383:48 *383:61 4.38 
9 *383:61 *1737:A 1.6 
10 *383:61 *383:86 18.155 
11 *383:86 *1738:A 1.6 
12 *383:86 *383:99 16.875 
13 *383:99 *383:101 0.36 
14 *383:101 *1736:A 2.05 
15 *383:101 *1731:A 16.88 
16 *383:99 *1740:A 12.0725 
17 *383:25 *383:156 26.67 
18 *383:156 *1734:A 1.6 
19 *383:156 *1732:A 36.98 
*END

*D_NET *384 0.0339825
*CONN
*I *1746:A I *D sky130_fd_sc_hd__inv_2
*I *1750:A I *D sky130_fd_sc_hd__inv_2
*I *1749:A I *D sky130_fd_sc_hd__inv_2
*I *1742:A I *D sky130_fd_sc_hd__inv_2
*I *1748:A I *D sky130_fd_sc_hd__inv_2
*I *1744:A I *D sky130_fd_sc_hd__inv_2
*I *1745:A I *D sky130_fd_sc_hd__inv_2
*I *1751:A I *D sky130_fd_sc_hd__inv_2
*I *1743:A I *D sky130_fd_sc_hd__inv_2
*I *1747:A I *D sky130_fd_sc_hd__inv_2
*I *1741:X O *D sky130_fd_sc_hd__clkbuf_8
*CAP
1 *1746:A 0
2 *1750:A 0
3 *1749:A 0.00102466
4 *1742:A 0.000724933
5 *1748:A 1.40611e-05
6 *1744:A 0.000104372
7 *1745:A 2.09808e-05
8 *1751:A 0.000488296
9 *1743:A 0
10 *1747:A 9.68115e-05
11 *1741:X 0
12 *384:143 0.00172696
13 *384:135 0.00301116
14 *384:108 0.00502228
15 *384:73 0.00122363
16 *384:54 0.00216198
17 *384:43 0.00107412
18 *384:14 0.000834076
19 *384:12 0.00145479
20 *384:4 0.00319067
21 *1742:A *1658:A1 0.000520523
22 *1742:A *491:43 0.000311945
23 *1744:A *486:35 0.000311288
24 *1747:A *1634:A1 4.82919e-05
25 *1747:A *387:125 4.99619e-05
26 *1748:A *1894:A 1.39832e-05
27 *1749:A *1890:A 0
28 *1749:A *400:22 0
29 *1749:A *415:25 0
30 *1749:A *495:21 0
31 *1751:A *1885:A 0
32 *384:12 *1632:A1 0
33 *384:12 *1880:A 0
34 *384:43 *387:115 0.000112279
35 *384:43 *480:33 4.77757e-05
36 *384:54 *1753:A 0
37 *384:54 *1885:A 0
38 *384:54 *480:33 0.000282854
39 *384:108 *389:98 0
40 *384:135 *390:53 1.0145e-05
41 *384:143 *1770:CLK 0.000160279
42 *384:143 *390:53 8.7152e-06
43 *384:143 *479:12 0
44 *1517:A2 *1742:A 5.44496e-05
45 *1520:A2 *1742:A 0.000222983
46 *1523:A2 *1742:A 9.67081e-06
47 *1549:A3 *384:108 6.60782e-05
48 *1549:A3 *384:135 0.00041125
49 *1553:A *1742:A 0.00011483
50 *1557:B1 *1742:A 1.01661e-05
51 *1631:A *1749:A 7.23533e-05
52 *1632:S *1747:A 3.09233e-05
53 *1632:S *384:12 2.14129e-05
54 *1632:S *384:14 0.000696751
55 *1633:A *384:12 0
56 *1634:S *1747:A 0.000137578
57 *1641:A *1744:A 7.75867e-05
58 *1679:A0 *384:108 0
59 *1685:S *384:108 2.28268e-05
60 *1717:A *1747:A 0
61 *1717:A *384:12 0.000226376
62 *1717:A *384:14 0.000228591
63 *1730:A *384:12 0.000194449
64 *1768:RESET_B *1749:A 0.000343914
65 *1774:RESET_B *384:12 0.000143266
66 *1784:D *384:12 0
67 *1784:RESET_B *384:12 0.000162325
68 *1790:D *1742:A 0.000150703
69 *1798:D *384:43 7.4027e-05
70 *1798:RESET_B *384:43 5.68166e-05
71 *1803:RESET_B *384:12 0.000163985
72 *1804:D *1749:A 5.29106e-05
73 *1804:RESET_B *1749:A 9.05349e-05
74 *1807:RESET_B *384:54 0.000187071
75 *1868:A *1749:A 0
76 *1895:A *384:143 6.80075e-05
77 *159:27 *384:135 0.000144109
78 *162:56 *1742:A 0.000202341
79 *165:10 *1742:A 1.65371e-05
80 *238:19 *1742:A 3.88859e-05
81 *244:10 *1742:A 0.000352873
82 *269:12 *1742:A 1.7635e-05
83 *279:55 *1742:A 0
84 *314:10 *1742:A 0.000457459
85 *339:26 *1744:A 8.50864e-05
86 *339:26 *384:73 0.00021561
87 *339:69 *384:43 0.000533709
88 *339:139 *1749:A 0.000292889
89 *339:154 *1749:A 0.000401226
90 *358:14 *384:143 9.63998e-05
91 *359:18 *384:143 0.000124895
92 *359:95 *384:108 0.000583843
93 *359:95 *384:135 0.000546977
94 *377:10 *1749:A 1.46411e-05
95 *380:24 *384:12 4.80285e-05
96 *381:14 *384:108 1.88602e-05
97 *381:94 *1749:A 0.000112515
98 *381:100 *1749:A 0.000380479
99 *381:110 *1749:A 0.000515794
100 *382:32 *384:12 0.000523028
101 *382:76 *384:43 6.67184e-05
102 *383:48 *1751:A 0
103 *383:48 *384:54 0
104 *383:156 *1742:A 4.82919e-05
*RES
1 *1741:X *384:4 1.6 
2 *384:4 *384:12 28.805 
3 *384:12 *384:14 8.265 
4 *384:14 *1747:A 5.94 
5 *384:14 *384:43 16.575 
6 *384:43 *1743:A 1.6 
7 *384:43 *384:54 12.56 
8 *384:54 *1751:A 11.1 
9 *384:54 *384:73 17.99 
10 *384:73 *1745:A 1.96 
11 *384:73 *1744:A 5.17 
12 *384:12 *1748:A 3.8475 
13 *384:4 *384:108 6.73263 
14 *384:108 *1742:A 24.2225 
15 *384:108 *384:135 5.8397 
16 *384:135 *384:143 12.89 
17 *384:143 *1749:A 31.295 
18 *384:143 *1750:A 1.6 
19 *384:135 *1746:A 3.6 
*END

*D_NET *385 0.0278564
*CONN
*I *1762:A I *D sky130_fd_sc_hd__inv_2
*I *1761:A I *D sky130_fd_sc_hd__inv_2
*I *1758:A I *D sky130_fd_sc_hd__inv_2
*I *1756:A I *D sky130_fd_sc_hd__inv_2
*I *1755:A I *D sky130_fd_sc_hd__inv_2
*I *1757:A I *D sky130_fd_sc_hd__inv_2
*I *1759:A I *D sky130_fd_sc_hd__inv_2
*I *1754:A I *D sky130_fd_sc_hd__inv_2
*I *1753:A I *D sky130_fd_sc_hd__inv_2
*I *1760:A I *D sky130_fd_sc_hd__inv_2
*I *1752:X O *D sky130_fd_sc_hd__clkbuf_8
*CAP
1 *1762:A 7.31061e-05
2 *1761:A 0
3 *1758:A 4.7227e-05
4 *1756:A 0.00032045
5 *1755:A 0.00064321
6 *1757:A 0
7 *1759:A 4.4027e-05
8 *1754:A 0.000229179
9 *1753:A 0.000490346
10 *1760:A 0
11 *1752:X 0
12 *385:108 0.00121459
13 *385:102 0.00199887
14 *385:100 0.0046323
15 *385:51 0.00128223
16 *385:45 0.000763823
17 *385:41 0.00390446
18 *385:26 0.000692548
19 *385:12 0.000675837
20 *385:6 0.000325731
21 *1753:A *1885:A 0.00102459
22 *1754:A *1617:A1 0.000125916
23 *1754:A *1857:A 8.64599e-05
24 *1755:A *1600:A1 0.000130569
25 *1756:A *471:37 0
26 *1759:A *389:36 2.75229e-05
27 *1762:A *1659:A1 0.000129538
28 *1762:A *391:12 8.82853e-05
29 *385:12 *1659:A1 0.000187225
30 *385:12 *391:12 0.000134086
31 *385:26 *1583:A1_N 1.37328e-05
32 *385:26 *1642:A0 0
33 *385:26 *1693:A0 3.48755e-05
34 *385:41 *1642:A0 1.07797e-05
35 *385:41 *1693:A0 0.000274785
36 *385:51 *1642:A0 0.000223981
37 *385:51 *1885:A 0.000520151
38 *385:51 *481:41 0.000328129
39 *385:100 *1513:A 7.79509e-05
40 *385:100 *1594:A1 0.000101621
41 *385:100 *1595:A1 3.25773e-05
42 *385:100 *1812:CLK 0.000141068
43 *385:100 *1825:A 1.56428e-05
44 *385:100 *390:14 0.000268387
45 *385:102 *1599:B1 0
46 *385:102 *1604:A1 0.000402641
47 *385:102 *470:26 0
48 *385:102 *472:54 0
49 *385:108 *1600:A1 0.00012398
50 *385:108 *1604:A1 1.43521e-05
51 *385:108 *388:105 0
52 *385:108 *388:122 0
53 *385:108 *470:26 0
54 *385:108 *471:18 0
55 *385:108 *471:31 0
56 *1433:B1 *385:100 1.91597e-05
57 *1513:B *385:100 6.63005e-05
58 *1516:A *385:100 0.000240272
59 *1531:A1 *385:102 0.000356683
60 *1532:B1 *1758:A 4.55862e-05
61 *1532:B1 *385:100 9.82856e-06
62 *1532:B1 *385:102 8.94219e-05
63 *1546:B1 *385:100 0.000192513
64 *1556:A *385:100 4.66108e-05
65 *1556:B *385:100 2.50191e-05
66 *1564:A1 *385:100 1.9468e-05
67 *1564:A2 *385:100 0.000155533
68 *1564:B1_N *385:100 5.18662e-05
69 *1565:A2 *385:100 5.19637e-05
70 *1581:B2 *385:100 2.19562e-06
71 *1583:B2 *385:45 7.05878e-05
72 *1593:A *385:102 4.52645e-05
73 *1594:A2 *385:100 4.77757e-05
74 *1594:A3 *385:100 0.000196069
75 *1600:A2 *1755:A 0.000196084
76 *1600:B2 *1755:A 1.91597e-05
77 *1601:A2 *385:102 4.91461e-06
78 *1604:A2 *385:102 0.000651587
79 *1604:B1 *385:102 3.93775e-05
80 *1604:B2 *385:102 0.000113797
81 *1617:A2 *1754:A 4.77807e-05
82 *1617:A2 *385:51 7.86401e-05
83 *1659:A3 *385:45 0.000147257
84 *1693:S *385:26 0
85 *1812:D *385:100 0.000127737
86 *193:16 *385:102 0
87 *193:29 *385:102 0.000204456
88 *193:44 *385:102 0.000158297
89 *240:6 *385:100 4.07949e-05
90 *240:12 *385:100 0.000443154
91 *256:59 *1758:A 0.000129372
92 *256:59 *385:100 0
93 *256:59 *385:102 0.000401861
94 *259:102 *385:102 0.000163456
95 *278:71 *385:45 0.000230303
96 *278:71 *385:51 0.000197052
97 *303:145 *385:45 8.87391e-05
98 *303:145 *385:51 0.000212718
99 *313:12 *385:100 1.34784e-05
100 *383:12 *385:26 0.00030718
101 *383:12 *385:41 0.000250314
102 *384:54 *1753:A 0
*RES
1 *1752:X *385:6 3.6 
2 *385:6 *385:12 7.76 
3 *385:12 *385:26 11.77 
4 *385:26 *1760:A 1.6 
5 *385:26 *385:41 9.19 
6 *385:41 *385:45 7.205 
7 *385:45 *385:51 15.96 
8 *385:51 *1753:A 15.435 
9 *385:51 *1754:A 7.875 
10 *385:45 *1759:A 4.41 
11 *385:41 *385:100 47.9525 
12 *385:100 *385:102 29.3025 
13 *385:102 *385:108 11.66 
14 *385:108 *1757:A 1.6 
15 *385:108 *1755:A 12.01 
16 *385:102 *1756:A 8.205 
17 *385:100 *1758:A 5.1075 
18 *385:12 *1761:A 1.6 
19 *385:6 *1762:A 6.255 
*END

*D_NET *386 0.0148858
*CONN
*I *1825:A I *D sky130_fd_sc_hd__clkbuf_16
*I *1824:A I *D sky130_fd_sc_hd__clkbuf_16
*I *1823:A I *D sky130_fd_sc_hd__clkbuf_16
*I *1822:A I *D sky130_fd_sc_hd__clkbuf_16
*I *1821:X O *D sky130_fd_sc_hd__clkbuf_16
*CAP
1 *1825:A 5.15481e-05
2 *1824:A 0.00126776
3 *1823:A 0.000129938
4 *1822:A 0.00136452
5 *1821:X 0.000286172
6 *386:50 0.00256179
7 *386:20 0.00281371
8 *386:14 0.0028479
9 *1822:A *1648:A1 1.97932e-05
10 *1823:A *478:23 0
11 *1824:A *389:10 0.000146815
12 *386:14 *1540:A 0
13 *386:20 *1648:A1 0.000227008
14 *386:20 *484:10 0.000250538
15 *386:50 *1648:A1 0.000302561
16 *1516:B *1824:A 0.000179582
17 *1565:A2 *1824:A 3.43387e-05
18 *1577:A *1824:A 8.34144e-06
19 *1641:A *1823:A 0
20 *1647:C1 *386:14 0
21 *1659:A3 *1824:A 0
22 *1661:B1 *1824:A 4.62243e-05
23 *1679:A0 *1824:A 7.9921e-06
24 *1821:A *386:20 0.00165842
25 *150:102 *386:14 6.21133e-05
26 *159:41 *1824:A 0.000118081
27 *162:36 *1824:A 5.91985e-05
28 *162:36 *1825:A 3.86814e-05
29 *162:36 *386:50 0.000259971
30 *200:54 *1824:A 8.247e-05
31 *266:28 *386:20 0
32 *266:123 *386:50 0
33 *278:10 *1825:A 1.89738e-05
34 *314:40 *1822:A 2.56866e-05
35 *339:61 *1822:A 0
36 *385:100 *1825:A 1.56428e-05
*RES
1 *1821:X *386:14 5.8175 
2 *386:14 *386:20 4.395 
3 *386:20 *1822:A 6.66483 
4 *386:20 *1823:A 6.1175 
5 *386:14 *386:50 2.9358 
6 *386:50 *1824:A 9.7693 
7 *386:50 *1825:A 5.0375 
*END

*D_NET *387 0.0198442
*CONN
*I *1800:CLK I *D sky130_fd_sc_hd__dfrtp_4
*I *1794:CLK I *D sky130_fd_sc_hd__dfrtp_1
*I *1807:CLK I *D sky130_fd_sc_hd__dfrtp_1
*I *1798:CLK I *D sky130_fd_sc_hd__dfrtp_4
*I *1802:CLK I *D sky130_fd_sc_hd__dfrtp_4
*I *1803:CLK I *D sky130_fd_sc_hd__dfrtp_4
*I *1808:CLK I *D sky130_fd_sc_hd__dfrtp_1
*I *1789:CLK I *D sky130_fd_sc_hd__dfrtp_1
*I *1783:CLK I *D sky130_fd_sc_hd__dfrtp_1
*I *1775:CLK I *D sky130_fd_sc_hd__dfrtp_1
*I *1806:CLK I *D sky130_fd_sc_hd__dfrtp_1
*I *1793:CLK I *D sky130_fd_sc_hd__dfrtp_1
*I *1795:CLK I *D sky130_fd_sc_hd__dfrtp_1
*I *1777:CLK I *D sky130_fd_sc_hd__dfrtp_1
*I *1799:CLK I *D sky130_fd_sc_hd__dfrtp_2
*I *1822:X O *D sky130_fd_sc_hd__clkbuf_16
*CAP
1 *1800:CLK 0
2 *1794:CLK 2.21004e-05
3 *1807:CLK 0
4 *1798:CLK 0
5 *1802:CLK 0
6 *1803:CLK 0.000220962
7 *1808:CLK 0.00010769
8 *1789:CLK 0.000263445
9 *1783:CLK 7.10204e-05
10 *1775:CLK 0.000548383
11 *1806:CLK 9.73504e-05
12 *1793:CLK 0.000232663
13 *1795:CLK 0.000180924
14 *1777:CLK 0.000220873
15 *1799:CLK 0.00021092
16 *1822:X 0.000165888
17 *387:159 0.00087213
18 *387:155 0.000898795
19 *387:140 0.000660867
20 *387:127 0.000961391
21 *387:125 0.000546426
22 *387:115 0.00106523
23 *387:93 0.000866358
24 *387:76 0.000641717
25 *387:63 0.000429476
26 *387:52 0.000966206
27 *387:46 0.00097399
28 *387:29 0.000743876
29 *387:23 0.000356396
30 *387:10 0.000376809
31 *1775:CLK *1886:A 0.000174839
32 *1777:CLK *1638:A0 0.000282031
33 *1777:CLK *1654:A1 0
34 *1789:CLK *1632:A1 3.25733e-05
35 *1789:CLK *481:41 4.89295e-05
36 *1793:CLK *1885:A 6.10014e-05
37 *1803:CLK *1632:A0 0.000105849
38 *1803:CLK *1632:A1 0
39 *1806:CLK *1691:A0 0.000107253
40 *1806:CLK *1691:A1 0.000121043
41 *387:29 *1638:A0 0.00048677
42 *387:29 *1638:A1 3.53405e-05
43 *387:29 *1691:A0 6.8308e-05
44 *387:29 *488:16 5.00404e-05
45 *387:46 *488:16 7.21895e-05
46 *387:52 *488:16 1.47347e-05
47 *387:76 *1885:A 0.000326362
48 *387:93 *1885:A 0.000308563
49 *387:115 *1634:A1 5.83121e-06
50 *387:125 *1634:A1 0.000143933
51 product[9] *1803:CLK 1.34017e-05
52 *1633:A *1803:CLK 0
53 *1634:S *387:125 4.82919e-05
54 *1638:S *387:29 4.89295e-05
55 *1639:A *387:29 0.000139509
56 *1651:A3 *1793:CLK 8.82557e-05
57 *1651:B1 *1793:CLK 0.000201503
58 *1652:A2 *387:29 0.000133453
59 *1655:A2 *387:52 0.000478505
60 *1717:A *387:125 0
61 *1747:A *387:125 4.99619e-05
62 *1783:D *387:140 3.89366e-05
63 *1783:D *387:155 1.64067e-05
64 *1793:D *387:52 4.82919e-05
65 *1793:RESET_B *387:52 4.66108e-05
66 *1794:D *1777:CLK 3.67779e-05
67 *1794:D *387:29 1.75055e-05
68 *1795:D *1793:CLK 0.000163436
69 *1795:D *387:76 4.22064e-05
70 *1798:D *387:115 3.5421e-05
71 *1800:D *1799:CLK 7.15106e-05
72 *1800:D *387:29 8.41307e-05
73 *1802:D *1775:CLK 3.05295e-05
74 *1802:D *387:125 2.75229e-05
75 *1802:D *387:140 6.55406e-05
76 *1802:RESET_B *387:125 0
77 *1803:D *1803:CLK 4.18603e-06
78 *1807:D *387:93 6.90438e-05
79 *1872:A *387:140 4.73312e-05
80 *259:135 *1799:CLK 9.65143e-05
81 *266:67 *1777:CLK 0.000380208
82 *303:73 *1793:CLK 0.000184866
83 *339:26 *387:10 8.53011e-05
84 *360:12 *1795:CLK 5.1973e-05
85 *360:24 *1793:CLK 1.74869e-05
86 *360:113 *387:76 0.000301664
87 *360:113 *387:93 0.00030498
88 *360:113 *387:115 0
89 *360:132 *1789:CLK 0
90 *382:53 *1789:CLK 0.000361615
91 *382:76 *387:115 0.000131261
92 *382:84 *1777:CLK 0.000461897
93 *383:61 *387:52 5.14357e-05
94 *383:86 *1777:CLK 0
95 *383:86 *387:52 0.000108031
96 *384:43 *387:115 0.000112279
*RES
1 *1822:X *387:10 6.03 
2 *387:10 *1799:CLK 7.665 
3 *387:10 *387:23 2 
4 *387:23 *387:29 11.255 
5 *387:29 *1777:CLK 11.265 
6 *387:29 *387:46 4.19 
7 *387:46 *387:52 11.955 
8 *387:52 *1795:CLK 3.7 
9 *387:52 *387:63 2 
10 *387:63 *1793:CLK 10.26 
11 *387:63 *387:76 6.99 
12 *387:76 *1806:CLK 6.12 
13 *387:76 *387:93 11.015 
14 *387:93 *387:115 12.565 
15 *387:115 *387:125 13 
16 *387:125 *387:127 2 
17 *387:127 *1775:CLK 13.725 
18 *387:127 *387:140 7.5 
19 *387:140 *1783:CLK 4.77 
20 *387:140 *387:155 2.655 
21 *387:155 *387:159 9.005 
22 *387:159 *1789:CLK 11.285 
23 *387:159 *1808:CLK 3.085 
24 *387:155 *1803:CLK 7.785 
25 *387:125 *1802:CLK 1.6 
26 *387:115 *1798:CLK 1.6 
27 *387:93 *1807:CLK 1.6 
28 *387:46 *1794:CLK 1.96 
29 *387:23 *1800:CLK 1.6 
*END

*D_NET *388 0.018007
*CONN
*I *1809:CLK I *D sky130_fd_sc_hd__dfrtp_2
*I *1768:CLK I *D sky130_fd_sc_hd__dfrtp_1
*I *1767:CLK I *D sky130_fd_sc_hd__dfrtp_1
*I *1804:CLK I *D sky130_fd_sc_hd__dfrtp_4
*I *1772:CLK I *D sky130_fd_sc_hd__dfrtp_4
*I *1810:CLK I *D sky130_fd_sc_hd__dfrtp_2
*I *1776:CLK I *D sky130_fd_sc_hd__dfrtp_1
*I *1779:CLK I *D sky130_fd_sc_hd__dfrtp_1
*I *1785:CLK I *D sky130_fd_sc_hd__dfrtp_1
*I *1787:CLK I *D sky130_fd_sc_hd__dfrtp_1
*I *1811:CLK I *D sky130_fd_sc_hd__dfrtp_2
*I *1796:CLK I *D sky130_fd_sc_hd__dfrtp_1
*I *1792:CLK I *D sky130_fd_sc_hd__dfrtp_1
*I *1782:CLK I *D sky130_fd_sc_hd__dfrtp_1
*I *1823:X O *D sky130_fd_sc_hd__clkbuf_16
*CAP
1 *1809:CLK 0
2 *1768:CLK 3.02564e-05
3 *1767:CLK 0.000508379
4 *1804:CLK 0
5 *1772:CLK 0
6 *1810:CLK 8.76612e-05
7 *1776:CLK 0.000312095
8 *1779:CLK 7.53298e-05
9 *1785:CLK 0
10 *1787:CLK 0.000389372
11 *1811:CLK 0
12 *1796:CLK 0
13 *1792:CLK 0.000304236
14 *1782:CLK 0.000356324
15 *1823:X 0.000379923
16 *388:163 0.000793324
17 *388:152 0.000727012
18 *388:139 0.000663205
19 *388:122 0.000583668
20 *388:105 0.00085193
21 *388:94 0.000537983
22 *388:80 0.000792481
23 *388:74 0.0011547
24 *388:65 0.000936891
25 *388:41 0.00061515
26 *388:35 0.000724154
27 *388:18 0.000495742
28 *388:14 0.00051934
29 *1767:CLK *494:8 2.75229e-05
30 *1779:CLK *1600:A1 5.83121e-06
31 *1782:CLK *486:18 0
32 *1792:CLK *1650:A1 9.32439e-05
33 *1792:CLK *1834:A 0
34 *1792:CLK *486:35 0
35 *388:14 *1648:A1 1.77198e-05
36 *388:18 *1683:A0 9.05592e-05
37 *388:41 *1650:A1 0.000162513
38 *388:41 *1683:A0 3.63576e-05
39 *388:41 *490:10 0.000191887
40 *388:65 *1610:A1 0.000118969
41 *388:65 *1683:A0 1.42674e-05
42 *388:80 *1689:A0 0
43 *388:80 *1883:A 9.56504e-05
44 *388:94 *1600:A1 3.32056e-05
45 *388:94 *1689:A0 0
46 *388:94 *471:12 0
47 *388:105 *1689:A0 0
48 *388:122 *470:26 0.000342247
49 *388:139 *470:12 0.00027299
50 *388:139 *470:26 0.000311331
51 *388:152 *470:12 0.000125838
52 *388:163 *1858:A 0.000154681
53 *388:163 *482:38 7.59822e-05
54 *1600:B2 *388:65 0.00016424
55 *1601:A2 *388:139 0
56 *1605:B1 *388:139 8.42817e-05
57 *1648:B1 *388:14 8.64599e-05
58 *1672:A0 *388:80 0
59 *1677:A0 *1782:CLK 0
60 *1678:A *1782:CLK 0.000160791
61 *1684:A *388:94 5.14627e-05
62 *1684:A *388:105 4.28778e-05
63 *1689:S *1776:CLK 0.000163204
64 *1690:A *1776:CLK 0.000424233
65 *1731:A *1787:CLK 0.000117268
66 *1740:A *1782:CLK 0.000105071
67 *1740:A *388:14 1.11746e-05
68 *1740:A *388:18 1.14299e-05
69 *1767:RESET_B *1767:CLK 2.34984e-05
70 *1772:D *388:152 4.77807e-05
71 *1776:D *1776:CLK 6.77046e-05
72 *1779:D *1779:CLK 8.53856e-06
73 *1779:D *388:105 7.03276e-05
74 *1782:D *1782:CLK 5.30673e-05
75 *1785:D *1787:CLK 4.80285e-05
76 *1785:D *388:80 6.52265e-05
77 *1785:RESET_B *388:80 0.000115582
78 *1787:D *1787:CLK 6.85905e-05
79 *1787:RESET_B *1787:CLK 4.70477e-05
80 *1796:RESET_B *1782:CLK 4.28112e-06
81 *1796:RESET_B *388:18 7.6949e-05
82 *1796:RESET_B *388:41 4.1235e-05
83 *1809:D *388:18 2.36882e-05
84 *1809:D *388:65 4.12409e-05
85 *1810:D *388:122 5.39961e-05
86 *1810:D *388:139 9.37731e-05
87 *1810:RESET_B *388:122 0
88 *1811:D *388:74 2.69153e-05
89 *1811:RESET_B *388:74 4.20711e-05
90 *1811:RESET_B *388:94 0
91 *163:61 *1792:CLK 5.96097e-05
92 *163:61 *388:41 0.000309643
93 *163:61 *388:65 0.000582434
94 *259:129 *388:14 4.91953e-05
95 *259:129 *388:18 1.52828e-05
96 *259:133 *388:14 7.04173e-06
97 *266:28 *388:14 3.59942e-05
98 *266:67 *1792:CLK 0
99 *321:8 *388:139 0.000121659
100 *339:16 *388:163 0
101 *339:22 *388:163 0
102 *359:18 *388:122 0
103 *359:18 *388:139 0
104 *359:22 *388:105 0
105 *359:22 *388:122 0
106 *381:116 *388:152 0.000158559
107 *381:116 *388:163 0.000215623
108 *385:108 *388:105 0
109 *385:108 *388:122 0
*RES
1 *1823:X *388:14 10.64 
2 *388:14 *388:18 4.655 
3 *388:18 *1782:CLK 10.32 
4 *388:18 *388:35 2 
5 *388:35 *388:41 7.98 
6 *388:41 *1792:CLK 11.015 
7 *388:41 *1796:CLK 1.6 
8 *388:35 *388:65 9.105 
9 *388:65 *1811:CLK 1.6 
10 *388:65 *388:74 10.04 
11 *388:74 *388:80 9.395 
12 *388:80 *1787:CLK 8.605 
13 *388:80 *1785:CLK 1.6 
14 *388:74 *388:94 4.185 
15 *388:94 *1779:CLK 4.74 
16 *388:94 *388:105 4.185 
17 *388:105 *1776:CLK 10.74 
18 *388:105 *388:122 6.48 
19 *388:122 *1810:CLK 4.755 
20 *388:122 *388:139 8.45 
21 *388:139 *1772:CLK 1.6 
22 *388:139 *388:152 9.59 
23 *388:152 *1804:CLK 3.6 
24 *388:152 *388:163 8.225 
25 *388:163 *1767:CLK 8.965 
26 *388:163 *1768:CLK 2.05 
27 *388:14 *1809:CLK 1.6 
*END

*D_NET *389 0.0224619
*CONN
*I *1781:CLK I *D sky130_fd_sc_hd__dfrtp_1
*I *1817:CLK I *D sky130_fd_sc_hd__dfrtp_2
*I *1814:CLK I *D sky130_fd_sc_hd__dfrtp_4
*I *1780:CLK I *D sky130_fd_sc_hd__dfrtp_1
*I *1816:CLK I *D sky130_fd_sc_hd__dfrtp_2
*I *1815:CLK I *D sky130_fd_sc_hd__dfrtp_4
*I *1778:CLK I *D sky130_fd_sc_hd__dfrtp_1
*I *1791:CLK I *D sky130_fd_sc_hd__dfrtp_1
*I *1813:CLK I *D sky130_fd_sc_hd__dfrtp_4
*I *1784:CLK I *D sky130_fd_sc_hd__dfrtp_1
*I *1774:CLK I *D sky130_fd_sc_hd__dfrtp_1
*I *1797:CLK I *D sky130_fd_sc_hd__dfrtp_2
*I *1790:CLK I *D sky130_fd_sc_hd__dfrtp_1
*I *1824:X O *D sky130_fd_sc_hd__clkbuf_16
*CAP
1 *1781:CLK 0.000744875
2 *1817:CLK 1.59233e-05
3 *1814:CLK 0
4 *1780:CLK 0.000330724
5 *1816:CLK 0
6 *1815:CLK 0
7 *1778:CLK 0.000451898
8 *1791:CLK 0.000290611
9 *1813:CLK 0.000186719
10 *1784:CLK 3.55506e-05
11 *1774:CLK 0.000488067
12 *1797:CLK 2.08101e-05
13 *1790:CLK 0.000285672
14 *1824:X 0
15 *389:157 0.00154589
16 *389:128 0.000773209
17 *389:107 0.000535338
18 *389:98 0.000942901
19 *389:90 0.000830794
20 *389:73 0.000905209
21 *389:60 0.000368672
22 *389:38 0.00133006
23 *389:36 0.00208117
24 *389:25 0.00139765
25 *389:10 0.000948476
26 *389:4 0.00134579
27 *1774:CLK *1880:A 0
28 *1780:CLK *391:12 0.000179983
29 *1781:CLK *1560:A1 0
30 *1790:CLK *1681:A0 5.40221e-05
31 *1813:CLK *1674:B2 0
32 *1813:CLK *1685:A0 0
33 *389:38 *1674:B2 2.90287e-05
34 *389:38 *1854:A 2.11084e-05
35 *389:38 *1880:A 0.000175457
36 *389:73 *1685:A0 0
37 *389:98 *1685:A0 0.000116568
38 *389:98 *1839:A 0.000160075
39 *389:128 *391:12 0
40 *1514:B *1817:CLK 2.68526e-05
41 *1516:A *389:157 7.38595e-05
42 *1516:C *389:157 0.000204463
43 *1517:B1 *389:157 0
44 *1520:A2 *389:157 0
45 *1549:A3 *389:157 0
46 *1557:B1 *389:157 0
47 *1558:B1 *389:157 0
48 *1561:B1 *389:157 0
49 *1565:A2 *389:10 7.23533e-05
50 *1574:A1 *389:157 8.70601e-05
51 *1585:A2 *389:36 8.65905e-05
52 *1585:B1 *389:36 2.75145e-05
53 *1586:B2 *389:36 2.59926e-05
54 *1647:B1 *1790:CLK 2.06578e-05
55 *1674:A1_N *1813:CLK 2.7872e-05
56 *1674:A2_N *1813:CLK 5.83121e-06
57 *1679:A0 *1781:CLK 0
58 *1681:S *1781:CLK 0
59 *1693:S *389:90 0.000208484
60 *1759:A *389:36 2.75229e-05
61 *1774:D *1774:CLK 4.91189e-05
62 *1778:RESET_B *1778:CLK 1.81788e-05
63 *1781:D *1781:CLK 4.40446e-05
64 *1781:RESET_B *1781:CLK 5.83121e-06
65 *1791:D *1791:CLK 0.000135033
66 *1797:D *1790:CLK 0.000116158
67 *1813:RESET_B *389:36 8.49205e-05
68 *1814:D *389:90 5.83121e-06
69 *1816:D *1780:CLK 2.01737e-05
70 *1824:A *389:10 0.000146815
71 *153:41 *1790:CLK 0
72 *153:41 *389:10 0
73 *161:10 *389:10 0.00021405
74 *163:22 *1790:CLK 0
75 *163:22 *389:10 0
76 *163:22 *389:25 3.34652e-05
77 *173:107 *389:157 0
78 *200:54 *389:10 0.000338598
79 *239:6 *389:36 0.000452558
80 *239:34 *389:36 4.66108e-05
81 *239:49 *389:10 0.000336966
82 *241:10 *389:157 0.000135258
83 *241:12 *389:157 0.00071683
84 *263:43 *1790:CLK 4.56773e-05
85 *269:12 *389:157 0
86 *279:55 *389:10 0
87 *279:55 *389:157 4.9968e-05
88 *280:12 *389:10 1.30589e-05
89 *314:29 *1790:CLK 0.000157179
90 *360:147 *1813:CLK 5.23362e-05
91 *360:168 *1813:CLK 4.8854e-05
92 *361:42 *1790:CLK 0.00049941
93 *380:67 *1817:CLK 1.77665e-05
94 *381:14 *389:90 9.89364e-05
95 *381:14 *389:98 0
96 *381:14 *389:128 1.07797e-05
97 *382:16 *389:107 0.000122011
98 *382:16 *389:128 0.000538
99 *382:32 *1778:CLK 8.23457e-05
100 *382:32 *389:98 0
101 *382:32 *389:107 4.77757e-05
102 *383:156 *1790:CLK 0.000290086
103 *384:108 *389:98 0
*RES
1 *1824:X *389:4 1.6 
2 *389:4 *389:10 12.455 
3 *389:10 *1790:CLK 12.63 
4 *389:10 *389:25 3.485 
5 *389:25 *1797:CLK 1.96 
6 *389:25 *389:36 14.955 
7 *389:36 *389:38 9.42 
8 *389:38 *1774:CLK 13.805 
9 *389:38 *1784:CLK 2.215 
10 *389:36 *389:60 2 
11 *389:60 *1813:CLK 7.05 
12 *389:60 *389:73 2.91 
13 *389:73 *1791:CLK 7.425 
14 *389:73 *389:90 10.13 
15 *389:90 *389:98 11.455 
16 *389:98 *1778:CLK 8.26 
17 *389:98 *389:107 1.83 
18 *389:107 *1815:CLK 1.6 
19 *389:107 *389:128 13.075 
20 *389:128 *1816:CLK 1.6 
21 *389:128 *1780:CLK 11.81 
22 *389:90 *1814:CLK 1.6 
23 *389:4 *389:157 18.935 
24 *389:157 *1817:CLK 4.05 
25 *389:157 *1781:CLK 13.17 
*END

*D_NET *390 0.0206728
*CONN
*I *1771:CLK I *D sky130_fd_sc_hd__dfrtp_2
*I *1819:CLK I *D sky130_fd_sc_hd__dfrtp_1
*I *1818:CLK I *D sky130_fd_sc_hd__dfrtp_1
*I *1786:CLK I *D sky130_fd_sc_hd__dfrtp_1
*I *1820:CLK I *D sky130_fd_sc_hd__dfrtp_2
*I *1805:CLK I *D sky130_fd_sc_hd__dfrtp_4
*I *1773:CLK I *D sky130_fd_sc_hd__dfrtp_1
*I *1769:CLK I *D sky130_fd_sc_hd__dfrtp_1
*I *1770:CLK I *D sky130_fd_sc_hd__dfrtp_1
*I *1801:CLK I *D sky130_fd_sc_hd__dfrtp_4
*I *1812:CLK I *D sky130_fd_sc_hd__dfrtp_2
*I *1788:CLK I *D sky130_fd_sc_hd__dfrtp_2
*I *1825:X O *D sky130_fd_sc_hd__clkbuf_16
*CAP
1 *1771:CLK 0.000113803
2 *1819:CLK 0
3 *1818:CLK 0.000626451
4 *1786:CLK 0.000705885
5 *1820:CLK 0
6 *1805:CLK 0
7 *1773:CLK 0.000270921
8 *1769:CLK 0.000470251
9 *1770:CLK 0.000194191
10 *1801:CLK 0
11 *1812:CLK 0.000215624
12 *1788:CLK 0
13 *1825:X 0.000495356
14 *390:139 0.00132904
15 *390:122 0.0015029
16 *390:113 0.000407063
17 *390:107 0.00059763
18 *390:72 0.000741172
19 *390:70 0.000143989
20 *390:53 0.000578684
21 *390:42 0.000425563
22 *390:38 0.000486013
23 *390:25 0.000576255
24 *390:14 0.00072622
25 *1769:CLK *1662:A 0.000119246
26 *1769:CLK *479:12 1.42807e-05
27 *1769:CLK *495:61 0.000119246
28 *1769:CLK *497:8 0
29 *1770:CLK *1668:A3 0.0001249
30 *1771:CLK *1706:A2 2.11084e-05
31 *1773:CLK *1695:A1 0.000113572
32 *1773:CLK *1695:A2 9.99523e-05
33 *1773:CLK *420:10 7.55391e-05
34 *1773:CLK *479:12 7.98736e-05
35 *1812:CLK *1595:A1 4.39937e-05
36 *1818:CLK *1518:A 9.93004e-05
37 *1818:CLK *1679:A1 7.4027e-05
38 *390:42 *483:36 0.000464932
39 *390:53 *483:36 0.000242345
40 *390:70 *479:12 0.000425507
41 *390:113 *1646:C 0.000341784
42 *390:122 *1646:C 0.000156344
43 *390:139 *1518:A 6.77558e-05
44 *390:139 *1646:C 0.000302375
45 *1433:A1 *390:14 0.000121043
46 *1433:A2 *390:14 0.000117077
47 *1433:B1 *390:14 4.77807e-05
48 *1437:C1 *1771:CLK 6.89124e-05
49 *1437:C1 *390:113 9.38596e-05
50 *1532:A1_N *390:113 0.000121815
51 *1532:A2_N *390:113 2.20014e-05
52 *1534:B1 *390:113 8.22567e-05
53 *1538:B1 *390:42 0.000197269
54 *1594:A3 *1812:CLK 0.000335515
55 *1594:A3 *390:38 0.000345032
56 *1594:A3 *390:107 0.000224701
57 *1595:A2 *1812:CLK 4.66108e-05
58 *1636:S *390:70 0.000241006
59 *1668:A2 *1812:CLK 0.000181717
60 *1671:B1 *1770:CLK 0.000360934
61 *1671:B1 *390:53 0.000173903
62 *1706:B1 *1771:CLK 2.75145e-05
63 *1724:A *1818:CLK 0.000172247
64 *1729:A *1786:CLK 0.000212044
65 *1765:A *1786:CLK 0.000262634
66 *1771:D *1771:CLK 0.000159741
67 *1773:D *1773:CLK 4.82919e-05
68 *1781:RESET_B *1818:CLK 0
69 *1788:D *390:25 7.08493e-05
70 *1788:RESET_B *1812:CLK 3.05295e-05
71 *1788:RESET_B *390:38 6.55406e-05
72 *1801:D *390:42 4.08514e-05
73 *1801:D *390:53 6.52265e-05
74 *1801:RESET_B *390:53 3.89528e-05
75 *1812:D *1812:CLK 4.89395e-05
76 *1819:RESET_B *390:139 2.66932e-05
77 *1895:A *1769:CLK 0.000183745
78 *1895:A *1773:CLK 0.000162325
79 *153:117 *390:113 0.000344752
80 *161:86 *390:113 0
81 *162:22 *1812:CLK 5.12297e-05
82 *162:22 *390:38 8.5485e-05
83 *162:22 *390:107 6.03396e-05
84 *162:89 *390:107 0.000121868
85 *173:91 *390:14 0.000338566
86 *256:8 *390:42 0.000237244
87 *256:59 *390:42 0.000119756
88 *266:155 *390:14 0.000336899
89 *313:12 *1812:CLK 4.77769e-05
90 *339:154 *1769:CLK 0
91 *358:14 *1769:CLK 0
92 *359:18 *1769:CLK 0
93 *359:18 *1770:CLK 0
94 *375:12 *1769:CLK 0.00015356
95 *380:103 *1786:CLK 0.000196058
96 *381:90 *1769:CLK 0
97 *381:90 *1773:CLK 0
98 *384:135 *390:53 1.0145e-05
99 *384:143 *1770:CLK 0.000160279
100 *384:143 *390:53 8.7152e-06
101 *385:100 *1812:CLK 0.000141068
102 *385:100 *390:14 0.000268387
*RES
1 *1825:X *390:14 17.33 
2 *390:14 *1788:CLK 1.6 
3 *390:14 *390:25 5.57 
4 *390:25 *1812:CLK 10.65 
5 *390:25 *390:38 4.185 
6 *390:38 *390:42 9.35 
7 *390:42 *1801:CLK 1.6 
8 *390:42 *390:53 8.045 
9 *390:53 *1770:CLK 8.925 
10 *390:53 *390:70 6.95 
11 *390:70 *390:72 2 
12 *390:72 *1769:CLK 12.75 
13 *390:72 *1773:CLK 10.275 
14 *390:70 *1805:CLK 1.6 
15 *390:38 *390:107 6.74 
16 *390:107 *390:113 10.085 
17 *390:113 *1820:CLK 3.6 
18 *390:113 *390:122 1.89 
19 *390:122 *1786:CLK 15.78 
20 *390:122 *390:139 11.915 
21 *390:139 *1818:CLK 16.325 
22 *390:139 *1819:CLK 1.6 
23 *390:107 *1771:CLK 4.465 
*END

*D_NET *391 0.00828757
*CONN
*I *1642:A0 I *D sky130_fd_sc_hd__mux2_1
*I *1859:X O *D sky130_fd_sc_hd__buf_1
*CAP
1 *1642:A0 0.00118662
2 *1859:X 0.000877205
3 *391:12 0.00206383
4 *1642:A0 *1659:A1 0
5 *1642:A0 *1693:A0 0.000288869
6 *1642:A0 *1885:A 0.000836421
7 *1642:A0 *485:22 0.00017765
8 *391:12 *1659:A1 8.65905e-05
9 *1617:B1_N *1642:A0 0.000257628
10 *1674:A1_N *1642:A0 0.000160705
11 *1693:S *1642:A0 0
12 *1762:A *391:12 8.82853e-05
13 *1780:CLK *391:12 0.000179983
14 *1814:D *1642:A0 7.06865e-05
15 *1814:RESET_B *1642:A0 1.26626e-05
16 *1815:RESET_B *391:12 0.000163992
17 *278:61 *1642:A0 0.00010596
18 *278:71 *1642:A0 0.00101135
19 *339:61 *1642:A0 0.000116853
20 *339:69 *1642:A0 8.65961e-05
21 *360:113 *1642:A0 2.54606e-05
22 *360:132 *1642:A0 0
23 *360:147 *1642:A0 0
24 *383:12 *1642:A0 0.000121387
25 *385:12 *391:12 0.000134086
26 *385:26 *1642:A0 0
27 *385:41 *1642:A0 1.07797e-05
28 *385:51 *1642:A0 0.000223981
29 *389:128 *391:12 0
*RES
1 *1859:X *391:12 20.76 
2 *391:12 *1642:A0 37.485 
*END

*D_NET *392 0.00636737
*CONN
*I *1659:A1 I *D sky130_fd_sc_hd__a31o_1
*I *1860:X O *D sky130_fd_sc_hd__buf_1
*CAP
1 *1659:A1 0.00209901
2 *1860:X 0.00209901
3 *1583:B2 *1659:A1 0.000289994
4 *1642:A0 *1659:A1 0
5 *1762:A *1659:A1 0.000129538
6 *1780:D *1659:A1 6.46972e-05
7 *1816:RESET_B *1659:A1 9.18556e-05
8 *1867:A *1659:A1 0.000280925
9 *278:61 *1659:A1 0
10 *278:71 *1659:A1 0
11 *360:168 *1659:A1 0.00103851
12 *385:12 *1659:A1 0.000187225
13 *391:12 *1659:A1 8.65905e-05
*RES
1 *1860:X *1659:A1 49.305 
*END

*D_NET *393 0.00606132
*CONN
*I *1657:A1 I *D sky130_fd_sc_hd__a31o_1
*I *1861:X O *D sky130_fd_sc_hd__buf_1
*CAP
1 *1657:A1 0.00242891
2 *1861:X 0.00242891
3 *1657:A1 *1640:A0 0.000395747
4 *1657:A1 *1881:A 2.75229e-05
5 *1657:A1 *1893:A 0.00011964
6 *1657:A1 *486:18 9.34773e-06
7 product[8] *1657:A1 1.33293e-05
8 *1657:B1 *1657:A1 0.000281402
9 *1725:A *1657:A1 4.77719e-05
10 *1782:RESET_B *1657:A1 4.77719e-05
11 *1861:A *1657:A1 0.000187381
12 *1869:A *1657:A1 7.35813e-05
*RES
1 *1861:X *1657:A1 45.105 
*END

*D_NET *394 0.00476491
*CONN
*I *1655:A1 I *D sky130_fd_sc_hd__a31o_1
*I *1862:X O *D sky130_fd_sc_hd__clkbuf_1
*CAP
1 *1655:A1 0.00188169
2 *1862:X 0.00188169
3 *1651:A3 *1655:A1 1.82563e-05
4 *1655:A3 *1655:A1 4.8525e-05
5 *1655:B1 *1655:A1 0.00028858
6 *1862:A *1655:A1 5.30673e-05
7 *266:79 *1655:A1 1.03833e-05
8 *360:24 *1655:A1 0.000147489
9 *382:76 *1655:A1 0.000435235
*RES
1 *1862:X *1655:A1 31.77 
*END

*D_NET *395 0.018831
*CONN
*I *1653:A1 I *D sky130_fd_sc_hd__a31o_1
*I *1863:X O *D sky130_fd_sc_hd__buf_1
*CAP
1 *1653:A1 0.00365548
2 *1863:X 0.000720062
3 *395:10 0.00437554
4 *1653:A1 *1630:A0 0.000189139
5 *1653:A1 *1649:A1 0.00195349
6 *1653:A1 *1890:A 6.4936e-05
7 *1653:A1 *415:25 0.0018355
8 *1653:A1 *482:14 0.00033914
9 *1653:A1 *487:43 4.11718e-05
10 *395:10 *1630:A0 0.000231699
11 *395:10 *1890:A 0.000344441
12 product[2] *1653:A1 4.1977e-05
13 *1821:A *1653:A1 0.00409556
14 *1863:A *395:10 8.66976e-06
15 *1874:A *395:10 0
16 *303:63 *1653:A1 0.00030822
17 *359:49 *1653:A1 0.000160194
18 *360:24 *1653:A1 0.000193854
19 *360:74 *1653:A1 2.38643e-05
20 *383:86 *1653:A1 0.000160314
21 *383:99 *1653:A1 8.77516e-05
*RES
1 *1863:X *395:10 19.1625 
2 *395:10 *1653:A1 48.4752 
*END

*D_NET *396 0.00353696
*CONN
*I *1651:A1 I *D sky130_fd_sc_hd__a31o_1
*I *1864:X O *D sky130_fd_sc_hd__clkbuf_1
*CAP
1 *1651:A1 0.0015599
2 *1864:X 0.0015599
3 *1651:A1 *498:DIODE 9.73618e-05
4 *1651:A1 *1885:A 1.80324e-05
5 *1651:A1 *408:28 0.000254966
6 *1651:A2 *1651:A1 9.50342e-06
7 *1651:B1 *1651:A1 0
8 *1864:A *1651:A1 3.72916e-05
*RES
1 *1864:X *1651:A1 26.46 
*END

*D_NET *397 0.00791354
*CONN
*I *1649:A1 I *D sky130_fd_sc_hd__a31o_1
*I *1865:X O *D sky130_fd_sc_hd__buf_1
*CAP
1 *1649:A1 0.00276221
2 *1865:X 0.00276221
3 *1649:A1 *486:35 0
4 *1653:A1 *1649:A1 0.00195349
5 *1656:A2 *1649:A1 1.92979e-05
6 *1865:A *1649:A1 7.77167e-06
7 *303:47 *1649:A1 0.000368905
8 *359:32 *1649:A1 0
9 *360:74 *1649:A1 3.96676e-05
*RES
1 *1865:X *1649:A1 20.1397 
*END

*D_NET *398 0.00600696
*CONN
*I *1646:C I *D sky130_fd_sc_hd__and3_1
*I *1866:X O *D sky130_fd_sc_hd__clkbuf_1
*CAP
1 *1646:C 0.0019223
2 *1866:X 0.0019223
3 *1646:C *1524:A 0
4 *1646:C *1526:A1 0
5 *1646:C *1594:A1 0.000114302
6 *1646:C *479:24 0
7 *1646:C *483:36 0
8 *1442:A1 *1646:C 1.79408e-05
9 *1450:A3 *1646:C 4.15065e-05
10 *1478:A1 *1646:C 0.00010579
11 *1532:A2_N *1646:C 6.70613e-05
12 *1594:A2 *1646:C 0.000281288
13 *1820:D *1646:C 0.000256983
14 *1866:A *1646:C 3.00381e-05
15 *161:66 *1646:C 0.000294316
16 *161:78 *1646:C 0.000152619
17 *161:135 *1646:C 0
18 *162:22 *1646:C 0
19 *252:25 *1646:C 0
20 *390:113 *1646:C 0.000341784
21 *390:122 *1646:C 0.000156344
22 *390:139 *1646:C 0.000302375
*RES
1 *1866:X *1646:C 42.015 
*END

*D_NET *399 0.000301508
*CONN
*I *1707:A I *D sky130_fd_sc_hd__buf_4
*I *1867:X O *D sky130_fd_sc_hd__clkbuf_1
*CAP
1 *1707:A 0.000150754
2 *1867:X 0.000150754
3 *1707:A *1880:A 0
*RES
1 *1867:X *1707:A 9.48 
*END

*D_NET *400 0.0109271
*CONN
*I *1627:B I *D sky130_fd_sc_hd__nand2_8
*I *1530:B I *D sky130_fd_sc_hd__and2_1
*I *1646:B I *D sky130_fd_sc_hd__and3_1
*I *1540:A I *D sky130_fd_sc_hd__clkbuf_4
*I *1553:B I *D sky130_fd_sc_hd__nor2_1
*I *1868:X O *D sky130_fd_sc_hd__clkbuf_4
*CAP
1 *1627:B 0
2 *1530:B 0.000133759
3 *1646:B 2.15379e-05
4 *1540:A 0.000366365
5 *1553:B 0.000347806
6 *1868:X 0.00114107
7 *400:36 0.000953474
8 *400:34 0.00122057
9 *400:28 0.00130211
10 *400:22 0.00134969
11 *1553:B *479:24 0.000199848
12 *400:22 *1700:A 6.24501e-05
13 *400:22 *1701:A1 2.65814e-06
14 *400:22 *1890:A 0.000326563
15 *400:22 *415:25 2.60958e-05
16 *400:22 *495:10 6.36578e-05
17 *400:22 *495:21 0.000100544
18 *400:22 *495:38 5.53249e-06
19 *400:36 *473:25 2.49909e-05
20 *400:36 *473:32 7.85634e-05
21 *400:36 *479:24 0.000510583
22 *1470:B1 *400:36 2.54431e-05
23 *1474:A2 *1540:A 0
24 *1531:A1 *1530:B 0
25 *1531:A1 *400:28 0
26 *1553:A *1553:B 2.01502e-05
27 *1591:A1 *400:34 2.8185e-05
28 *1591:B1 *400:34 4.66108e-05
29 *1593:A *400:34 5.71884e-05
30 *1631:A *400:22 0
31 *1647:C1 *400:34 8.49454e-05
32 *1671:B1 *1530:B 0.000187071
33 *1671:B1 *400:28 0.000141606
34 *1700:B *400:22 0.000270618
35 *1749:A *400:22 0
36 *1768:RESET_B *400:22 0
37 *150:102 *1540:A 0
38 *157:12 *1540:A 0.000636082
39 *157:12 *400:36 2.49909e-05
40 *157:23 *400:36 4.47209e-05
41 *197:6 *400:34 0.000531699
42 *197:6 *400:36 0.000119246
43 *197:21 *400:34 0.000183909
44 *277:6 *1553:B 2.75145e-05
45 *339:139 *400:22 9.85986e-05
46 *381:100 *400:22 0.000114024
47 *381:110 *400:22 4.66108e-05
48 *386:14 *1540:A 0
*RES
1 *1868:X *400:22 24.755 
2 *400:22 *400:28 5.465 
3 *400:28 *400:34 17.645 
4 *400:34 *400:36 5.97 
5 *400:36 *1553:B 7.705 
6 *400:36 *1540:A 13.1 
7 *400:34 *1646:B 1.96 
8 *400:28 *1530:B 6.36 
9 *400:22 *1627:B 1.6 
*END

*D_NET *401 0.00140288
*CONN
*I *1878:A I *D sky130_fd_sc_hd__clkbuf_4
*I *1826:A I *D sky130_fd_sc_hd__dlygate4sd3_1
*I *1773:Q O *D sky130_fd_sc_hd__dfrtp_1
*CAP
1 *1878:A 0.000169959
2 *1826:A 0.000225261
3 *1773:Q 0
4 *401:6 0.00039522
5 *1826:A *1695:A1 0.000238919
6 *1826:A *1890:A 0.000118527
7 *1878:A *1890:A 0.000243782
8 done *1878:A 1.12156e-05
*RES
1 *1773:Q *401:6 3.6 
2 *401:6 *1826:A 8.19 
3 *401:6 *1878:A 7.305 
*END

*D_NET *402 0.0026475
*CONN
*I *1640:A0 I *D sky130_fd_sc_hd__mux2_1
*I *1869:X O *D sky130_fd_sc_hd__clkbuf_1
*CAP
1 *1640:A0 0.000736305
2 *1869:X 0.000736305
3 *1640:A0 *1640:A1 4.89395e-05
4 *1640:A0 *1648:B2 0.000150105
5 *1640:A0 *1650:A1 9.42924e-05
6 *1648:B1 *1640:A0 0.0001622
7 *1657:A1 *1640:A0 0.000395747
8 *259:133 *1640:A0 7.82612e-05
9 *259:135 *1640:A0 1.32026e-05
10 *303:20 *1640:A0 0
11 *314:86 *1640:A0 0.000194531
12 *314:109 *1640:A0 3.76158e-05
*RES
1 *1869:X *1640:A0 21.555 
*END

*D_NET *403 0.00118325
*CONN
*I *1843:A I *D sky130_fd_sc_hd__dlygate4sd3_1
*I *1879:A I *D sky130_fd_sc_hd__clkbuf_4
*I *1774:Q O *D sky130_fd_sc_hd__dfrtp_1
*CAP
1 *1843:A 0
2 *1879:A 0.000413976
3 *1774:Q 0.000118387
4 *403:12 0.000532363
5 *403:12 *1685:A0 0.00011852
6 *403:12 *1693:A1 0
7 *381:14 *403:12 0
*RES
1 *1774:Q *403:12 7.775 
2 *403:12 *1879:A 7.57 
3 *403:12 *1843:A 1.6 
*END

*D_NET *404 0.0044737
*CONN
*I *1854:A I *D sky130_fd_sc_hd__dlygate4sd3_1
*I *1880:A I *D sky130_fd_sc_hd__clkbuf_4
*I *1784:Q O *D sky130_fd_sc_hd__dfrtp_1
*CAP
1 *1854:A 1.65187e-05
2 *1880:A 0.00207426
3 *1784:Q 0
4 *404:4 0.00209078
5 *1854:A *1674:B2 5.83121e-06
6 *1707:A *1880:A 0
7 *1774:CLK *1880:A 0
8 *1774:D *1880:A 0
9 *1778:D *1880:A 8.97564e-05
10 *1784:D *1880:A 0
11 *380:14 *1880:A 0
12 *380:18 *1880:A 0
13 *380:24 *1880:A 0
14 *382:32 *1880:A 0
15 *384:12 *1880:A 0
16 *389:38 *1854:A 2.11084e-05
17 *389:38 *1880:A 0.000175457
*RES
1 *1784:Q *404:4 1.6 
2 *404:4 *1880:A 40.85 
3 *404:4 *1854:A 2.05 
*END

*D_NET *405 0.00114731
*CONN
*I *1835:A I *D sky130_fd_sc_hd__dlygate4sd3_1
*I *1881:A I *D sky130_fd_sc_hd__clkbuf_4
*I *1785:Q O *D sky130_fd_sc_hd__dfrtp_1
*CAP
1 *1835:A 0
2 *1881:A 0.000153656
3 *1785:Q 0.000265092
4 *405:10 0.000418749
5 *1881:A *1689:A0 5.16418e-05
6 *405:10 *1689:A0 0.000136877
7 *405:10 *1883:A 9.37731e-05
8 *1657:A1 *1881:A 2.75229e-05
*RES
1 *1785:Q *405:10 7.41 
2 *405:10 *1881:A 6.195 
3 *405:10 *1835:A 3.6 
*END

*D_NET *406 0.00130559
*CONN
*I *1882:A I *D sky130_fd_sc_hd__clkbuf_4
*I *1853:A I *D sky130_fd_sc_hd__dlygate4sd3_1
*I *1786:Q O *D sky130_fd_sc_hd__dfrtp_1
*CAP
1 *1882:A 0.00058157
2 *1853:A 0
3 *1786:Q 7.12241e-05
4 *406:8 0.000652794
5 *1882:A *1628:A0 0
6 *1882:A *1890:A 0
*RES
1 *1786:Q *406:8 2.755 
2 *406:8 *1853:A 1.6 
3 *406:8 *1882:A 14.87 
*END

*D_NET *407 0.00352545
*CONN
*I *1883:A I *D sky130_fd_sc_hd__buf_2
*I *1850:A I *D sky130_fd_sc_hd__dlygate4sd3_1
*I *1787:Q O *D sky130_fd_sc_hd__dfrtp_1
*CAP
1 *1883:A 0.00120971
2 *1850:A 0.000165176
3 *1787:Q 3.27521e-05
4 *407:6 0.00140764
5 *1883:A *1672:A1 0.00027209
6 *1672:A0 *1850:A 6.15099e-05
7 *1672:A0 *1883:A 0
8 *1672:S *1850:A 0
9 *1785:D *1850:A 1.56477e-05
10 *1785:D *1883:A 0.000123225
11 *1785:D *407:6 4.82863e-05
12 *388:80 *1883:A 9.56504e-05
13 *405:10 *1883:A 9.37731e-05
*RES
1 *1787:Q *407:6 2.05 
2 *407:6 *1850:A 8.36 
3 *407:6 *1883:A 22.82 
*END

*D_NET *408 0.020333
*CONN
*I *1830:A I *D sky130_fd_sc_hd__dlygate4sd3_1
*I *1884:A I *D sky130_fd_sc_hd__clkbuf_4
*I *498:DIODE I *D sky130_fd_sc_hd__diode_2
*I *1788:Q O *D sky130_fd_sc_hd__dfrtp_2
*CAP
1 *1830:A 9.40748e-05
2 *1884:A 0
3 *498:DIODE 0.000140931
4 *1788:Q 0
5 *408:28 0.00904402
6 *408:4 0.00899716
7 *408:28 *469:45 0.000114056
8 *1651:A1 *498:DIODE 9.73618e-05
9 *1651:A1 *408:28 0.000254966
10 *1821:A *408:28 0
11 *259:102 *408:28 0.000195625
12 *278:113 *408:28 0
13 *278:123 *408:28 0
14 *325:14 *408:28 0.000324344
15 *360:24 *408:28 0.000593648
16 *360:74 *408:28 0
17 *382:92 *408:28 0.000476867
*RES
1 *1788:Q *408:4 1.6 
2 *408:4 *408:28 30.6613 
3 *408:28 *498:DIODE 4.12 
4 *408:28 *1884:A 1.6 
5 *408:4 *1830:A 3.01 
*END

*D_NET *409 0.00729762
*CONN
*I *1848:A I *D sky130_fd_sc_hd__dlygate4sd3_1
*I *1885:A I *D sky130_fd_sc_hd__clkbuf_4
*I *1789:Q O *D sky130_fd_sc_hd__dfrtp_1
*CAP
1 *1848:A 0.000181178
2 *1885:A 0.00153139
3 *1789:Q 0
4 *409:4 0.00171257
5 *1885:A *1642:A1 2.67022e-05
6 *1885:A *1691:A1 7.1624e-05
7 *1885:A *481:41 4.41506e-05
8 *1617:A2 *1848:A 0.000404402
9 *1642:A0 *1885:A 0.000836421
10 *1651:A1 *1885:A 1.80324e-05
11 *1651:A2 *1885:A 0
12 *1655:A2 *1885:A 0
13 *1733:A *1848:A 3.64998e-06
14 *1751:A *1885:A 0
15 *1753:A *1885:A 0.00102459
16 *1789:RESET_B *1848:A 8.73389e-06
17 *1789:RESET_B *1885:A 3.54025e-05
18 *1793:CLK *1885:A 6.10014e-05
19 *278:71 *1848:A 9.50342e-06
20 *360:113 *1885:A 0
21 *383:31 *1848:A 0.000173183
22 *383:48 *1848:A 0
23 *384:54 *1885:A 0
24 *385:51 *1885:A 0.000520151
25 *387:76 *1885:A 0.000326362
26 *387:93 *1885:A 0.000308563
*RES
1 *1789:Q *409:4 1.6 
2 *409:4 *1885:A 42.605 
3 *409:4 *1848:A 10.745 
*END

*D_NET *410 0.00248973
*CONN
*I *1842:A I *D sky130_fd_sc_hd__dlygate4sd3_1
*I *1886:A I *D sky130_fd_sc_hd__clkbuf_4
*I *1775:Q O *D sky130_fd_sc_hd__dfrtp_1
*CAP
1 *1842:A 5.05437e-05
2 *1886:A 0.000961668
3 *1775:Q 0
4 *410:4 0.00101221
5 *1717:A *1842:A 5.2431e-05
6 *1717:A *1886:A 0.000238034
7 *1775:CLK *1886:A 0.000174839
*RES
1 *1775:Q *410:4 1.6 
2 *410:4 *1886:A 18.035 
3 *410:4 *1842:A 2.665 
*END

*D_NET *411 0.00189039
*CONN
*I *1887:A I *D sky130_fd_sc_hd__clkbuf_4
*I *1845:A I *D sky130_fd_sc_hd__dlygate4sd3_1
*I *1776:Q O *D sky130_fd_sc_hd__dfrtp_1
*CAP
1 *1887:A 0.000262712
2 *1845:A 0.000294365
3 *1776:Q 6.05382e-05
4 *411:8 0.000617615
5 *1845:A *1689:A1 0.000240968
6 *1845:A *415:25 0.000103974
7 *1887:A *415:25 0.000310216
8 *1776:RESET_B *1845:A 0
*RES
1 *1776:Q *411:8 4.395 
2 *411:8 *1845:A 9.645 
3 *411:8 *1887:A 9.825 
*END

*D_NET *412 0.00162508
*CONN
*I *1834:A I *D sky130_fd_sc_hd__dlygate4sd3_1
*I *1888:A I *D sky130_fd_sc_hd__clkbuf_4
*I *1777:Q O *D sky130_fd_sc_hd__dfrtp_1
*CAP
1 *1834:A 0.000154511
2 *1888:A 0.000278179
3 *1777:Q 0.000149185
4 *412:8 0.000581876
5 *1834:A *486:35 0
6 *1834:A *487:43 2.67022e-05
7 *1888:A *487:43 1.02346e-05
8 *412:8 *487:43 8.65961e-05
9 *1720:A *1888:A 3.86697e-05
10 *1792:CLK *1834:A 0
11 *266:67 *1834:A 0.00027665
12 *266:67 *1888:A 8.53113e-06
13 *314:73 *412:8 1.39472e-05
*RES
1 *1777:Q *412:8 5.43 
2 *412:8 *1888:A 7.995 
3 *412:8 *1834:A 7.02 
*END

*D_NET *413 0.00291666
*CONN
*I *1638:A0 I *D sky130_fd_sc_hd__mux2_1
*I *1870:X O *D sky130_fd_sc_hd__clkbuf_1
*CAP
1 *1638:A0 0.000802767
2 *1870:X 0.000802767
3 *1638:A0 *1638:A1 4.77719e-05
4 *1638:S *1638:A0 0
5 *1639:A *1638:A0 5.00317e-05
6 *1653:B1 *1638:A0 0.000305026
7 *1777:CLK *1638:A0 0.000282031
8 *1800:D *1638:A0 7.98512e-05
9 *1870:A *1638:A0 3.72916e-05
10 *383:86 *1638:A0 2.23485e-05
11 *387:29 *1638:A0 0.00048677
*RES
1 *1870:X *1638:A0 22.965 
*END

*D_NET *414 0.00229296
*CONN
*I *1889:A I *D sky130_fd_sc_hd__clkbuf_4
*I *1839:A I *D sky130_fd_sc_hd__dlygate4sd3_1
*I *1778:Q O *D sky130_fd_sc_hd__dfrtp_1
*CAP
1 *1889:A 0.000721365
2 *1839:A 0.000222395
3 *1778:Q 0
4 *414:6 0.000943759
5 *1839:A *1685:A1 7.81978e-05
6 product[4] *1889:A 2.01737e-05
7 *1685:S *1839:A 1.92979e-05
8 *380:18 *1889:A 0
9 *380:24 *1839:A 0
10 *380:24 *1889:A 0
11 *381:14 *1839:A 0
12 *381:14 *1889:A 0
13 *382:16 *1889:A 0
14 *382:32 *1839:A 0.000127698
15 *389:98 *1839:A 0.000160075
*RES
1 *1778:Q *414:6 3.6 
2 *414:6 *1839:A 8.535 
3 *414:6 *1889:A 14.625 
*END

*D_NET *415 0.011744
*CONN
*I *1890:A I *D sky130_fd_sc_hd__buf_2
*I *1683:A1 I *D sky130_fd_sc_hd__mux2_1
*I *1779:Q O *D sky130_fd_sc_hd__dfrtp_1
*CAP
1 *1890:A 0.00159536
2 *1683:A1 0.000471503
3 *1779:Q 0
4 *415:25 0.00300017
5 *415:4 0.00187631
6 *1890:A *1628:A0 0.000546779
7 *1890:A *1630:A0 0.00060505
8 *1890:A *1701:A1 0.000152135
9 *1890:A *422:14 4.05358e-05
10 *1890:A *495:38 0
11 product[5] *1890:A 1.17114e-05
12 *1628:S *1890:A 0
13 *1653:A1 *1890:A 6.4936e-05
14 *1653:A1 *415:25 0.0018355
15 *1683:S *1683:A1 1.56428e-05
16 *1749:A *1890:A 0
17 *1749:A *415:25 0
18 *1769:RESET_B *1890:A 5.01003e-05
19 *1805:RESET_B *1890:A 0
20 *1826:A *1890:A 0.000118527
21 *1845:A *415:25 0.000103974
22 *1863:A *1890:A 0
23 *1865:A *415:25 4.7072e-06
24 *1868:A *415:25 0
25 *1878:A *1890:A 0.000243782
26 *1882:A *1890:A 0
27 *1887:A *415:25 0.000310216
28 *339:154 *1890:A 0
29 *381:94 *1890:A 0
30 *395:10 *1890:A 0.000344441
31 *400:22 *1890:A 0.000326563
32 *400:22 *415:25 2.60958e-05
*RES
1 *1779:Q *415:4 1.6 
2 *415:4 *1683:A1 11.3 
3 *415:4 *415:25 30.9425 
4 *415:25 *1890:A 43.1025 
*END

*D_NET *416 0.000898979
*CONN
*I *1891:A I *D sky130_fd_sc_hd__clkbuf_4
*I *1836:A I *D sky130_fd_sc_hd__dlygate4sd3_1
*I *1780:Q O *D sky130_fd_sc_hd__dfrtp_1
*CAP
1 *1891:A 0.000262273
2 *1836:A 0
3 *1780:Q 3.05452e-05
4 *416:6 0.000292818
5 *1891:A *1681:A0 0
6 *1891:A *1681:A1 9.51579e-05
7 *416:6 *1681:A1 2.88357e-05
8 *1680:A *1891:A 0
9 *1681:S *1891:A 9.40993e-05
10 *360:168 *1891:A 6.18661e-05
11 *360:168 *416:6 3.33839e-05
*RES
1 *1780:Q *416:6 2.395 
2 *416:6 *1836:A 1.6 
3 *416:6 *1891:A 10.865 
*END

*D_NET *417 0.000590694
*CONN
*I *1892:A I *D sky130_fd_sc_hd__clkbuf_4
*I *1844:A I *D sky130_fd_sc_hd__dlygate4sd3_1
*I *1781:Q O *D sky130_fd_sc_hd__dfrtp_1
*CAP
1 *1892:A 7.65257e-05
2 *1844:A 3.96833e-05
3 *1781:Q 0.000103683
4 *417:6 0.000219892
5 *1781:RESET_B *1844:A 0.00012044
6 *1781:RESET_B *417:6 3.04704e-05
*RES
1 *1781:Q *417:6 3.085 
2 *417:6 *1844:A 3.01 
3 *417:6 *1892:A 6.725 
*END

*D_NET *418 0.00186654
*CONN
*I *1838:A I *D sky130_fd_sc_hd__dlygate4sd3_1
*I *1893:A I *D sky130_fd_sc_hd__clkbuf_4
*I *1782:Q O *D sky130_fd_sc_hd__dfrtp_1
*CAP
1 *1838:A 0.000257433
2 *1893:A 0.000247939
3 *1782:Q 0.000116148
4 *418:8 0.000621521
5 product[8] *1893:A 5.05521e-05
6 *1657:A1 *1893:A 0.00011964
7 *1670:A *1838:A 0.000162409
8 *1731:A *1838:A 3.86607e-05
9 *1731:A *1893:A 3.05295e-05
10 *1787:RESET_B *1838:A 6.56448e-06
11 *360:24 *1838:A 0
12 *360:24 *1893:A 0
13 *360:41 *1838:A 0.000162409
14 *382:117 *418:8 5.27366e-05
*RES
1 *1782:Q *418:8 5.085 
2 *418:8 *1893:A 8.34 
3 *418:8 *1838:A 8.505 
*END

*D_NET *419 0.00246976
*CONN
*I *1894:A I *D sky130_fd_sc_hd__clkbuf_4
*I *1840:A I *D sky130_fd_sc_hd__dlygate4sd3_1
*I *1783:Q O *D sky130_fd_sc_hd__dfrtp_1
*CAP
1 *1894:A 0.0005448
2 *1840:A 0.000131831
3 *1783:Q 0
4 *419:4 0.00067663
5 *1894:A *1632:A0 0.000324069
6 *1894:A *1685:A0 0.000265496
7 *1632:S *1894:A 2.75145e-05
8 *1748:A *1894:A 1.39832e-05
9 *1783:RESET_B *1840:A 2.21074e-05
10 *382:53 *1894:A 0.000265496
11 *382:76 *1840:A 0.000197836
*RES
1 *1783:Q *419:4 1.6 
2 *419:4 *1840:A 4.39 
3 *419:4 *1894:A 16.355 
*END

*D_NET *420 0.004944
*CONN
*I *1695:A2 I *D sky130_fd_sc_hd__o21a_1
*I *1671:B2 I *D sky130_fd_sc_hd__a22o_1
*I *1706:A2 I *D sky130_fd_sc_hd__a21oi_1
*I *1663:B I *D sky130_fd_sc_hd__nand2_4
*I *1895:X O *D sky130_fd_sc_hd__clkbuf_2
*CAP
1 *1695:A2 0.000266181
2 *1671:B2 0.000190298
3 *1706:A2 0.000516461
4 *1663:B 4.32487e-05
5 *1895:X 0.000118058
6 *420:29 0.000760783
7 *420:16 0.000394231
8 *420:10 0.000681199
9 *1663:B *1663:A 0
10 *1663:B *493:14 4.66742e-05
11 *1671:B2 *1636:A0 0.000163165
12 *420:10 *483:36 2.86975e-05
13 *420:16 *1663:A 4.82919e-05
14 *420:16 *1695:A1 6.90438e-05
15 *420:16 *493:14 6.52265e-05
16 *420:29 *1636:A0 4.91816e-05
17 *1437:C1 *1706:A2 5.58436e-05
18 *1715:A *420:16 1.75875e-05
19 *1771:CLK *1706:A2 2.11084e-05
20 *1771:D *1706:A2 4.38313e-05
21 *1773:CLK *1695:A2 9.99523e-05
22 *1773:CLK *420:10 7.55391e-05
23 *1773:D *1695:A2 2.97285e-05
24 *163:134 *1706:A2 4.9977e-05
25 *359:8 *420:29 3.09233e-05
26 *381:73 *1663:B 8.57024e-05
27 *381:73 *1671:B2 8.40178e-05
28 *381:73 *1706:A2 9.82856e-06
29 *381:73 *420:16 0.000865895
30 *381:73 *420:29 3.33186e-05
*RES
1 *1895:X *420:10 5.685 
2 *420:10 *420:16 10.4 
3 *420:16 *1663:B 2.755 
4 *420:16 *420:29 3.5075 
5 *420:29 *1706:A2 10.1775 
6 *420:29 *1671:B2 8.4225 
7 *420:10 *1695:A2 7.74 
*END

*D_NET *421 0.0014954
*CONN
*I *1695:A1 I *D sky130_fd_sc_hd__o21a_1
*I *1826:X O *D sky130_fd_sc_hd__dlygate4sd3_1
*CAP
1 *1695:A1 0.000409137
2 *1826:X 0.000409137
3 *1773:CLK *1695:A1 0.000113572
4 *1773:RESET_B *1695:A1 0.000162777
5 *1826:A *1695:A1 0.000238919
6 *381:73 *1695:A1 2.93517e-05
7 *381:90 *1695:A1 6.34651e-05
8 *420:16 *1695:A1 6.90438e-05
*RES
1 *1826:X *1695:A1 15.255 
*END

*D_NET *422 0.00194977
*CONN
*I *1699:A1 I *D sky130_fd_sc_hd__o21ai_1
*I *1698:A1 I *D sky130_fd_sc_hd__o21ai_1
*I *1837:X O *D sky130_fd_sc_hd__dlygate4sd3_1
*CAP
1 *1699:A1 1.33976e-05
2 *1698:A1 0.000115049
3 *1837:X 0.000535233
4 *422:14 0.00066368
5 *1698:B1 *1698:A1 2.87686e-05
6 *1698:B1 *1699:A1 9.13949e-06
7 *1698:B1 *422:14 2.20014e-05
8 *1699:B1 *1698:A1 1.32102e-05
9 *1702:A *422:14 5.73313e-05
10 *1702:B *422:14 4.77757e-05
11 *1769:D *422:14 0.000122293
12 *1769:RESET_B *422:14 8.52972e-05
13 *1770:D *1698:A1 8.73389e-06
14 *1890:A *422:14 4.05358e-05
15 *375:14 *422:14 0.000158532
16 *381:94 *422:14 2.87867e-05
*RES
1 *1837:X *422:14 14.945 
2 *422:14 *1698:A1 3.445 
3 *422:14 *1699:A1 1.96 
*END

*D_NET *423 0.00131454
*CONN
*I *1666:B1 I *D sky130_fd_sc_hd__o21ai_1
*I *1848:X O *D sky130_fd_sc_hd__dlygate4sd3_1
*CAP
1 *1666:B1 0.000131488
2 *1848:X 0.000131488
3 *1666:B1 *1587:B2 0.00020268
4 *1666:A1 *1666:B1 6.92319e-05
5 *1667:B1 *1666:B1 3.26889e-05
6 *303:145 *1666:B1 0.000124007
7 *306:12 *1666:B1 1.12578e-05
8 *361:42 *1666:B1 0.0006117
*RES
1 *1848:X *1666:B1 9.185 
*END

*D_NET *424 0.00248976
*CONN
*I *1636:A0 I *D sky130_fd_sc_hd__mux2_1
*I *1871:X O *D sky130_fd_sc_hd__clkbuf_1
*CAP
1 *1636:A0 0.000957295
2 *1871:X 0.000957295
3 *1636:A0 *479:12 4.05674e-06
4 *1636:A0 *479:24 1.7386e-05
5 *1636:A0 *493:12 7.4027e-05
6 *1671:B1 *1636:A0 0
7 *1671:B2 *1636:A0 0.000163165
8 *1729:A *1636:A0 0
9 *1786:D *1636:A0 0.000115945
10 *163:124 *1636:A0 0.000151408
11 *359:8 *1636:A0 0
12 *359:18 *1636:A0 0
13 *420:29 *1636:A0 4.91816e-05
*RES
1 *1871:X *1636:A0 24.84 
*END

*D_NET *425 0.00137936
*CONN
*I *1671:A2 I *D sky130_fd_sc_hd__a22o_1
*I *1853:X O *D sky130_fd_sc_hd__dlygate4sd3_1
*CAP
1 *1671:A2 0.000638003
2 *1853:X 0.000638003
3 *1671:A1 *1671:A2 3.5678e-06
4 *1671:B1 *1671:A2 4.88428e-05
5 *1786:D *1671:A2 5.09431e-05
*RES
1 *1853:X *1671:A2 17.43 
*END

*D_NET *426 0.000678786
*CONN
*I *1674:B2 I *D sky130_fd_sc_hd__a2bb2o_1
*I *1854:X O *D sky130_fd_sc_hd__dlygate4sd3_1
*CAP
1 *1674:B2 0.000297707
2 *1854:X 0.000297707
3 *1674:B2 *1685:A0 4.4073e-05
4 *1813:CLK *1674:B2 0
5 *1854:A *1674:B2 5.83121e-06
6 *360:147 *1674:B2 0
7 *382:53 *1674:B2 4.43871e-06
8 *389:38 *1674:B2 2.90287e-05
*RES
1 *1854:X *1674:B2 11.1 
*END

*D_NET *427 0.000645609
*CONN
*I *1701:C1 I *D sky130_fd_sc_hd__o211ai_1
*I *1855:X O *D sky130_fd_sc_hd__dlygate4sd3_1
*CAP
1 *1701:C1 7.53621e-05
2 *1855:X 7.53621e-05
3 *1701:C1 *1701:A1 6.33849e-05
4 *1701:C1 *1855:A 0.0002336
5 *1701:C1 *496:19 0.0001979
*RES
1 *1855:X *1701:C1 6.41 
*END

*D_NET *428 0.00231985
*CONN
*I *1703:B1 I *D sky130_fd_sc_hd__o211ai_1
*I *1704:A1 I *D sky130_fd_sc_hd__o21ai_1
*I *1856:X O *D sky130_fd_sc_hd__dlygate4sd3_1
*CAP
1 *1703:B1 0.000305355
2 *1704:A1 0
3 *1856:X 0.000312059
4 *428:6 0.000617414
5 *1703:B1 *1703:A1 0.000612442
6 *1703:B1 *482:38 0.000344652
7 *428:6 *1856:A 4.82863e-05
8 *1704:B1 *1703:B1 1.05984e-05
9 *1704:B1 *428:6 6.90438e-05
*RES
1 *1856:X *428:6 6.19 
2 *428:6 *1704:A1 1.6 
3 *428:6 *1703:B1 9.34 
*END

*D_NET *429 0.000707594
*CONN
*I *1617:A1 I *D sky130_fd_sc_hd__a21bo_1
*I *1857:X O *D sky130_fd_sc_hd__dlygate4sd3_1
*CAP
1 *1617:A1 0.000175362
2 *1857:X 0.000175362
3 *1617:A1 *1857:A 8.52972e-05
4 *1617:A2 *1617:A1 8.23457e-05
5 *1754:A *1617:A1 0.000125916
6 *1808:D *1617:A1 6.33103e-05
*RES
1 *1857:X *1617:A1 7.1 
*END

*D_NET *430 0.000800402
*CONN
*I *1705:A1 I *D sky130_fd_sc_hd__a21bo_1
*I *1858:X O *D sky130_fd_sc_hd__dlygate4sd3_1
*CAP
1 *1705:A1 0.000165863
2 *1858:X 0.000165863
3 *1705:A1 *1858:A 7.27003e-05
4 *1630:S *1705:A1 0.000269668
5 *1705:A2 *1705:A1 2.75229e-05
6 *1705:B1_N *1705:A1 9.2954e-05
7 *381:116 *1705:A1 5.83121e-06
*RES
1 *1858:X *1705:A1 7.46 
*END

*D_NET *431 0.000343374
*CONN
*I *1621:A1 I *D sky130_fd_sc_hd__a22o_1
*I *1827:X O *D sky130_fd_sc_hd__dlygate4sd3_1
*CAP
1 *1621:A1 0.000140315
2 *1827:X 0.000140315
3 *1807:D *1621:A1 6.27438e-05
*RES
1 *1827:X *1621:A1 5.045 
*END

*D_NET *432 0.000385499
*CONN
*I *1605:A1 I *D sky130_fd_sc_hd__a21o_1
*I *1828:X O *D sky130_fd_sc_hd__dlygate4sd3_1
*CAP
1 *1605:A1 0.000135468
2 *1828:X 0.000135468
3 *1605:A2 *1605:A1 7.4027e-05
4 *359:18 *1605:A1 4.05358e-05
*RES
1 *1828:X *1605:A1 9.84 
*END

*D_NET *433 0.00161544
*CONN
*I *1595:A1 I *D sky130_fd_sc_hd__a22o_1
*I *1829:X O *D sky130_fd_sc_hd__dlygate4sd3_1
*CAP
1 *1595:A1 0.000705373
2 *1829:X 0.000705373
3 *1595:A1 *472:12 3.72007e-05
4 *1595:A2 *1595:A1 2.49909e-05
5 *1812:CLK *1595:A1 4.39937e-05
6 *1812:D *1595:A1 4.04574e-05
7 *1812:RESET_B *1595:A1 2.54715e-05
8 *385:100 *1595:A1 3.25773e-05
*RES
1 *1829:X *1595:A1 15.78 
*END

*D_NET *434 0.00130209
*CONN
*I *1668:B2 I *D sky130_fd_sc_hd__a32o_1
*I *1830:X O *D sky130_fd_sc_hd__dlygate4sd3_1
*CAP
1 *1668:B2 0.000141597
2 *1830:X 0.000141597
3 *1668:B2 *1668:A3 0.000480603
4 *1668:B1 *1668:B2 0.000273352
5 *1671:A1 *1668:B2 0.000224406
6 *256:59 *1668:B2 4.05358e-05
*RES
1 *1830:X *1668:B2 12.93 
*END

*D_NET *435 0.000699492
*CONN
*I *1634:A0 I *D sky130_fd_sc_hd__mux2_1
*I *1872:X O *D sky130_fd_sc_hd__clkbuf_1
*CAP
1 *1634:A0 0.000308033
2 *1872:X 0.000308033
3 *1635:A *1634:A0 3.00381e-05
4 *1802:D *1634:A0 5.35969e-06
5 *1872:A *1634:A0 4.80285e-05
*RES
1 *1872:X *1634:A0 6.755 
*END

*D_NET *436 0.00041999
*CONN
*I *1576:A1 I *D sky130_fd_sc_hd__a22o_1
*I *1831:X O *D sky130_fd_sc_hd__dlygate4sd3_1
*CAP
1 *1576:A1 9.70002e-05
2 *1831:X 9.70002e-05
3 *1576:A1 *1681:A0 7.23602e-05
4 *1576:A1 *462:23 3.86607e-05
5 *1576:B1 *1576:A1 1.47256e-05
6 *1576:B2 *1576:A1 3.26889e-05
7 *278:42 *1576:A1 6.75536e-05
*RES
1 *1831:X *1576:A1 9.225 
*END

*D_NET *437 0.000421767
*CONN
*I *1626:A1 I *D sky130_fd_sc_hd__a22o_1
*I *1832:X O *D sky130_fd_sc_hd__dlygate4sd3_1
*CAP
1 *1626:A1 0.000149076
2 *1832:X 0.000149076
3 *1806:D *1626:A1 7.03219e-05
4 *259:141 *1626:A1 4.60081e-05
5 *314:40 *1626:A1 7.28465e-06
*RES
1 *1832:X *1626:A1 9.81 
*END

*D_NET *438 0.00037902
*CONN
*I *1610:A1 I *D sky130_fd_sc_hd__a22o_1
*I *1833:X O *D sky130_fd_sc_hd__dlygate4sd3_1
*CAP
1 *1610:A1 0.000130026
2 *1833:X 0.000130026
3 *388:65 *1610:A1 0.000118969
*RES
1 *1833:X *1610:A1 5.045 
*END

*D_NET *439 0.00158385
*CONN
*I *1687:A1 I *D sky130_fd_sc_hd__mux2_1
*I *1834:X O *D sky130_fd_sc_hd__dlygate4sd3_1
*CAP
1 *1687:A1 0.000440731
2 *1834:X 0.000440731
3 *1687:A1 *1687:A0 9.33998e-05
4 *1687:S *1687:A1 0.000112892
5 *1720:A *1687:A1 0
6 *1777:RESET_B *1687:A1 0
7 *266:67 *1687:A1 0
8 *303:63 *1687:A1 0.000496095
*RES
1 *1834:X *1687:A1 13.935 
*END

*D_NET *440 0.000969642
*CONN
*I *1672:A1 I *D sky130_fd_sc_hd__mux2_1
*I *1835:X O *D sky130_fd_sc_hd__dlygate4sd3_1
*CAP
1 *1672:A1 0.000202261
2 *1835:X 0.000202261
3 *1672:S *1672:A1 4.99619e-05
4 *1883:A *1672:A1 0.00027209
5 *382:117 *1672:A1 0.000243067
*RES
1 *1835:X *1672:A1 8.48 
*END

*D_NET *441 0.000766855
*CONN
*I *1681:A1 I *D sky130_fd_sc_hd__mux2_1
*I *1836:X O *D sky130_fd_sc_hd__dlygate4sd3_1
*CAP
1 *1681:A1 0.000250846
2 *1836:X 0.000250846
3 *1681:A1 *1681:A0 0.000120186
4 *1679:S *1681:A1 1.79174e-05
5 *1891:A *1681:A1 9.51579e-05
6 *360:168 *1681:A1 3.06569e-06
7 *416:6 *1681:A1 2.88357e-05
*RES
1 *1836:X *1681:A1 11.1 
*END

*D_NET *442 0.00108697
*CONN
*I *1677:A1 I *D sky130_fd_sc_hd__mux2_1
*I *1838:X O *D sky130_fd_sc_hd__dlygate4sd3_1
*CAP
1 *1677:A1 0.00032815
2 *1838:X 0.00032815
3 *1670:A *1677:A1 0.000311659
4 *1677:A0 *1677:A1 0
5 *1787:D *1677:A1 7.01359e-05
6 *314:109 *1677:A1 3.56244e-06
7 *360:41 *1677:A1 4.53086e-05
*RES
1 *1838:X *1677:A1 12.15 
*END

*D_NET *443 0.00104048
*CONN
*I *1685:A1 I *D sky130_fd_sc_hd__mux2_1
*I *1839:X O *D sky130_fd_sc_hd__dlygate4sd3_1
*CAP
1 *1685:A1 0.000481142
2 *1839:X 0.000481142
3 *1839:A *1685:A1 7.81978e-05
*RES
1 *1839:X *1685:A1 8.48 
*END

*D_NET *444 0.00144001
*CONN
*I *1675:A1 I *D sky130_fd_sc_hd__mux2_1
*I *1840:X O *D sky130_fd_sc_hd__dlygate4sd3_1
*CAP
1 *1675:A1 0.000398261
2 *1840:X 0.000398261
3 *1617:B1_N *1675:A1 5.62881e-05
4 *1675:A0 *1675:A1 0.000569444
5 *1808:D *1675:A1 1.77595e-05
*RES
1 *1840:X *1675:A1 14.565 
*END

*D_NET *445 0.0010772
*CONN
*I *1561:A1 I *D sky130_fd_sc_hd__a22o_1
*I *1841:X O *D sky130_fd_sc_hd__dlygate4sd3_1
*CAP
1 *1561:A1 0.000318202
2 *1841:X 0.000318202
3 *1552:A *1561:A1 3.89366e-05
4 *259:18 *1561:A1 0.000272903
5 *278:20 *1561:A1 0.000128954
*RES
1 *1841:X *1561:A1 13.02 
*END

*D_NET *446 0.00160961
*CONN
*I *1632:A0 I *D sky130_fd_sc_hd__mux2_1
*I *1873:X O *D sky130_fd_sc_hd__clkbuf_1
*CAP
1 *1632:A0 0.000579291
2 *1873:X 0.000579291
3 *1633:A *1632:A0 2.11084e-05
4 *1803:CLK *1632:A0 0.000105849
5 *1803:D *1632:A0 0
6 *1894:A *1632:A0 0.000324069
*RES
1 *1873:X *1632:A0 18.51 
*END

*D_NET *447 0.000844957
*CONN
*I *1691:A1 I *D sky130_fd_sc_hd__mux2_1
*I *1842:X O *D sky130_fd_sc_hd__dlygate4sd3_1
*CAP
1 *1691:A1 0.000278168
2 *1842:X 0.000278168
3 *1691:A1 *1691:A0 4.81824e-05
4 *1691:S *1691:A1 4.77719e-05
5 *1806:CLK *1691:A1 0.000121043
6 *1885:A *1691:A1 7.1624e-05
*RES
1 *1842:X *1691:A1 12 
*END

*D_NET *448 0.000282697
*CONN
*I *1693:A1 I *D sky130_fd_sc_hd__mux2_1
*I *1843:X O *D sky130_fd_sc_hd__dlygate4sd3_1
*CAP
1 *1693:A1 0.000115487
2 *1843:X 0.000115487
3 *1693:A1 *1693:A0 2.86975e-05
4 *381:14 *1693:A1 2.30258e-05
5 *403:12 *1693:A1 0
*RES
1 *1843:X *1693:A1 8.865 
*END

*D_NET *449 0.00131733
*CONN
*I *1679:A1 I *D sky130_fd_sc_hd__mux2_1
*I *1844:X O *D sky130_fd_sc_hd__dlygate4sd3_1
*CAP
1 *1679:A1 0.000590019
2 *1844:X 0.000590019
3 *1679:A1 *1560:A1 2.53714e-05
4 *1679:S *1679:A1 3.78953e-05
5 *1818:CLK *1679:A1 7.4027e-05
*RES
1 *1844:X *1679:A1 15.795 
*END

*D_NET *450 0.00152968
*CONN
*I *1689:A1 I *D sky130_fd_sc_hd__mux2_1
*I *1845:X O *D sky130_fd_sc_hd__dlygate4sd3_1
*CAP
1 *1689:A1 0.000467214
2 *1845:X 0.000467214
3 *1718:A *1689:A1 4.77757e-05
4 *1776:RESET_B *1689:A1 0.000200289
5 *1845:A *1689:A1 0.000240968
6 *339:22 *1689:A1 7.95286e-05
7 *359:22 *1689:A1 2.66935e-05
*RES
1 *1845:X *1689:A1 15.78 
*END

*D_NET *451 0.00123096
*CONN
*I *1600:A1 I *D sky130_fd_sc_hd__a22o_1
*I *1846:X O *D sky130_fd_sc_hd__dlygate4sd3_1
*CAP
1 *1600:A1 0.000406491
2 *1846:X 0.000406491
3 *1600:A2 *1600:A1 2.88357e-05
4 *1755:A *1600:A1 0.000130569
5 *1779:CLK *1600:A1 5.83121e-06
6 *1811:D *1600:A1 4.77807e-05
7 *1811:RESET_B *1600:A1 4.77769e-05
8 *385:108 *1600:A1 0.00012398
9 *388:94 *1600:A1 3.32056e-05
*RES
1 *1846:X *1600:A1 14.64 
*END

*D_NET *452 0.00199408
*CONN
*I *1524:A I *D sky130_fd_sc_hd__inv_2
*I *1847:X O *D sky130_fd_sc_hd__dlygate4sd3_1
*CAP
1 *1524:A 0.00055667
2 *1847:X 0.00055667
3 *1646:C *1524:A 0
4 *1765:A *1524:A 0.000484132
5 *161:86 *1524:A 9.32375e-05
6 *380:103 *1524:A 0.000303374
*RES
1 *1847:X *1524:A 18.18 
*END

*D_NET *453 0.00137794
*CONN
*I *1587:B2 I *D sky130_fd_sc_hd__a2bb2o_1
*I *1849:X O *D sky130_fd_sc_hd__dlygate4sd3_1
*CAP
1 *1587:B2 0.000121832
2 *1849:X 0.000121832
3 *1666:B1 *1587:B2 0.00020268
4 *306:12 *1587:B2 0.00069125
5 *361:42 *1587:B2 0.000240349
*RES
1 *1849:X *1587:B2 9.515 
*END

*D_NET *454 0.000932992
*CONN
*I *1669:A1 I *D sky130_fd_sc_hd__mux2_1
*I *1850:X O *D sky130_fd_sc_hd__dlygate4sd3_1
*CAP
1 *1669:A1 0.000211717
2 *1850:X 0.000211717
3 *1672:A0 *1669:A1 0.000422968
4 *360:41 *1669:A1 8.65905e-05
*RES
1 *1850:X *1669:A1 8.135 
*END

*D_NET *455 0.00155196
*CONN
*I *1701:A1 I *D sky130_fd_sc_hd__o211ai_1
*I *1851:X O *D sky130_fd_sc_hd__dlygate4sd3_1
*CAP
1 *1701:A1 0.00039212
2 *1851:X 0.00039212
3 *1701:A1 *1665:A 3.06027e-05
4 *1701:A1 *1697:A 4.02438e-05
5 *1701:A1 *1855:A 4.77769e-05
6 *1701:A1 *495:38 0.000370372
7 *1701:A1 *496:19 7.18795e-06
8 *1701:B1 *1701:A1 4.66108e-05
9 *1701:C1 *1701:A1 6.33849e-05
10 *1890:A *1701:A1 0.000152135
11 *381:100 *1701:A1 6.74916e-06
12 *400:22 *1701:A1 2.65814e-06
*RES
1 *1851:X *1701:A1 15.42 
*END

*D_NET *456 0.0010451
*CONN
*I *1703:A1 I *D sky130_fd_sc_hd__o211ai_1
*I *1852:X O *D sky130_fd_sc_hd__dlygate4sd3_1
*CAP
1 *1703:A1 0.000130654
2 *1852:X 0.000130654
3 *1703:B1 *1703:A1 0.000612442
4 *1704:B1 *1703:A1 0.000171351
*RES
1 *1852:X *1703:A1 7.79 
*END

*D_NET *457 0.00167452
*CONN
*I *1630:A0 I *D sky130_fd_sc_hd__mux2_1
*I *1874:X O *D sky130_fd_sc_hd__clkbuf_1
*CAP
1 *1630:A0 0.000282093
2 *1874:X 0.000282093
3 *1630:A0 *482:14 6.97202e-05
4 *1630:A0 *482:38 1.47256e-05
5 *1653:A1 *1630:A0 0.000189139
6 *1890:A *1630:A0 0.00060505
7 *395:10 *1630:A0 0.000231699
*RES
1 *1874:X *1630:A0 15.675 
*END

*D_NET *458 0.00270279
*CONN
*I *1668:A3 I *D sky130_fd_sc_hd__a32o_1
*I *1877:X O *D sky130_fd_sc_hd__clkbuf_1
*CAP
1 *1668:A3 0.000985866
2 *1877:X 0.000985866
3 *1668:A2 *1668:A3 3.45252e-05
4 *1668:B1 *1668:A3 3.00939e-05
5 *1668:B2 *1668:A3 0.000480603
6 *1770:CLK *1668:A3 0.0001249
7 *1812:RESET_B *1668:A3 1.45651e-05
8 *162:22 *1668:A3 5.83121e-06
9 *358:14 *1668:A3 4.05358e-05
*RES
1 *1877:X *1668:A3 23.07 
*END

*D_NET *459 0.00202591
*CONN
*I *1628:A0 I *D sky130_fd_sc_hd__mux2_1
*I *1875:X O *D sky130_fd_sc_hd__clkbuf_1
*CAP
1 *1628:A0 0.000739566
2 *1875:X 0.000739566
3 *1628:S *1628:A0 0
4 *1773:RESET_B *1628:A0 0
5 *1882:A *1628:A0 0
6 *1890:A *1628:A0 0.000546779
7 *381:90 *1628:A0 0
*RES
1 *1875:X *1628:A0 23.115 
*END

*D_NET *460 0.00660635
*CONN
*I *1661:A1 I *D sky130_fd_sc_hd__a31o_1
*I *1876:X O *D sky130_fd_sc_hd__clkbuf_1
*CAP
1 *1661:A1 0.00199314
2 *1876:X 0.00199314
3 *1661:A1 *1518:A 0.000398241
4 *1661:A1 *1519:A 0.00029653
5 *1661:A1 *1521:A1 4.88568e-05
6 *1433:B1 *1661:A1 0.000246418
7 *1473:B1 *1661:A1 9.04781e-05
8 *1474:A2 *1661:A1 2.53531e-05
9 *1521:C1 *1661:A1 6.81315e-05
10 *1525:A1 *1661:A1 0
11 *1525:B2 *1661:A1 6.51234e-06
12 *1525:C1 *1661:A1 1.05827e-05
13 *1542:A2_N *1661:A1 0
14 *1547:A2 *1661:A1 0
15 *1548:B1 *1661:A1 0.00013521
16 *1549:A2 *1661:A1 0
17 *1764:A *1661:A1 0
18 *1818:RESET_B *1661:A1 0
19 *1876:A *1661:A1 3.00381e-05
20 *158:19 *1661:A1 4.45373e-05
21 *159:21 *1661:A1 9.25928e-05
22 *160:35 *1661:A1 0.00010984
23 *162:112 *1661:A1 0
24 *200:25 *1661:A1 0.000212263
25 *200:44 *1661:A1 6.10014e-05
26 *205:18 *1661:A1 0.000346509
27 *245:12 *1661:A1 0.000263452
28 *246:16 *1661:A1 0
29 *251:16 *1661:A1 0
30 *303:115 *1661:A1 8.19185e-05
31 *303:133 *1661:A1 3.12916e-05
32 *380:103 *1661:A1 2.03131e-05
*RES
1 *1876:X *1661:A1 43.59 
*END

*D_NET *461 0.00347246
*CONN
*I *1832:A I *D sky130_fd_sc_hd__dlygate4sd3_1
*I *1645:B2 I *D sky130_fd_sc_hd__a2bb2o_1
*I *1623:A1 I *D sky130_fd_sc_hd__o32a_1
*I *1493:A I *D sky130_fd_sc_hd__or2_1
*I *1624:A1 I *D sky130_fd_sc_hd__o21ai_1
*I *1806:Q O *D sky130_fd_sc_hd__dfrtp_1
*CAP
1 *1832:A 4.15502e-05
2 *1645:B2 0.000162542
3 *1623:A1 4.03388e-05
4 *1493:A 1.36054e-05
5 *1624:A1 6.58883e-05
6 *1806:Q 0
7 *461:33 0.000108609
8 *461:27 0.000303849
9 *461:14 0.000600403
10 *461:4 0.000489422
11 *1624:A1 *467:31 6.10039e-05
12 *1832:A *1691:A0 2.88357e-05
13 *461:33 *480:33 3.83194e-05
14 *1493:B *1493:A 5.4155e-06
15 *1621:B1 *461:14 3.41501e-05
16 *1623:A2 *1493:A 0
17 *1624:A2 *461:14 3.09164e-05
18 *1624:A2 *461:27 8.5242e-05
19 *1624:A2 *461:33 5.83121e-06
20 *1624:B1 *1623:A1 0.000195586
21 *1624:B1 *461:14 2.59981e-05
22 *1624:B1 *461:27 1.15688e-05
23 *1624:B1 *461:33 1.08758e-05
24 *1625:A2 *1645:B2 0.000149537
25 *1625:A2 *461:27 0.000138551
26 *1625:A3 *1624:A1 0
27 *1645:B1 *1645:B2 9.33942e-05
28 *1806:D *1832:A 4.77807e-05
29 *1806:D *461:14 6.81928e-05
30 *163:49 *461:14 3.22653e-05
31 *163:51 *1832:A 3.96347e-05
32 *163:51 *461:14 0.000291426
33 *217:16 *1493:A 9.53428e-06
34 *217:16 *1623:A1 0.000173179
35 *217:16 *461:33 4.41506e-05
36 *338:10 *1832:A 2.48641e-05
37 *383:48 *1645:B2 0
38 *383:48 *461:14 0
39 *383:48 *461:27 0
*RES
1 *1806:Q *461:4 1.6 
2 *461:4 *461:14 10.01 
3 *461:14 *1624:A1 4.755 
4 *461:14 *461:27 1.89 
5 *461:27 *461:33 3.155 
6 *461:33 *1493:A 1.96 
7 *461:33 *1623:A1 3.43 
8 *461:27 *1645:B2 7.275 
9 *461:4 *1832:A 6.92 
*END

*D_NET *462 0.00423881
*CONN
*I *1575:A1 I *D sky130_fd_sc_hd__o31a_1
*I *1438:A2 I *D sky130_fd_sc_hd__o41a_1
*I *1562:C_N I *D sky130_fd_sc_hd__or3b_1
*I *1515:A I *D sky130_fd_sc_hd__xor2_2
*I *1571:C_N I *D sky130_fd_sc_hd__or3b_1
*I *1816:Q O *D sky130_fd_sc_hd__dfrtp_2
*CAP
1 *1575:A1 2.61242e-05
2 *1438:A2 0
3 *1562:C_N 0.000168618
4 *1515:A 6.1795e-05
5 *1571:C_N 0
6 *1816:Q 0.000123465
7 *462:32 0.00030112
8 *462:23 0.000324659
9 *462:19 0.000361413
10 *462:8 0.000328391
11 *1515:A *1438:A3 0.000118081
12 *462:19 *1681:A0 0.000125895
13 *462:23 *1681:A0 2.88436e-05
14 *462:32 *1438:A3 0.000453444
15 *1438:B1 *462:32 0.000267944
16 *1515:B *462:32 4.11729e-05
17 *1562:A *1562:C_N 0.000113654
18 *1568:A1 *462:19 0.000130729
19 *1570:A1 *462:19 0.000111037
20 *1571:A *462:19 6.4559e-05
21 *1574:A1 *1562:C_N 7.89884e-05
22 *1576:A1 *462:23 3.86607e-05
23 *1616:B1 *1562:C_N 0
24 *1679:A0 *1562:C_N 0.000200831
25 *1816:D *462:8 9.15924e-05
26 *1816:D *462:19 6.92161e-05
27 *149:70 *462:19 5.16418e-05
28 *149:70 *462:23 0.000331159
29 *165:10 *462:32 4.29107e-05
30 *254:82 *462:23 4.76303e-05
31 *254:99 *462:32 2.05056e-05
32 *278:61 *462:23 6.81237e-05
33 *381:54 *1575:A1 4.66108e-05
*RES
1 *1816:Q *462:8 4.135 
2 *462:8 *1571:C_N 1.6 
3 *462:8 *462:19 7.325 
4 *462:19 *462:23 5.93 
5 *462:23 *1515:A 2.74 
6 *462:23 *462:32 4.59 
7 *462:32 *1562:C_N 9.5 
8 *462:32 *1438:A2 1.6 
9 *462:19 *1575:A1 4.05 
*END

*D_NET *463 0.00593251
*CONN
*I *1438:A1 I *D sky130_fd_sc_hd__o41a_1
*I *1514:A I *D sky130_fd_sc_hd__xor2_2
*I *1569:A1 I *D sky130_fd_sc_hd__o31a_1
*I *1841:A I *D sky130_fd_sc_hd__dlygate4sd3_1
*I *1817:Q O *D sky130_fd_sc_hd__dfrtp_2
*CAP
1 *1438:A1 0.000367446
2 *1514:A 6.85666e-05
3 *1569:A1 5.21664e-05
4 *1841:A 0.000129425
5 *1817:Q 8.15686e-05
6 *463:29 0.000302118
7 *463:23 0.00124332
8 *463:8 0.000905485
9 *1514:B *463:29 1.56261e-05
10 *1551:A *1841:A 1.88602e-05
11 *1552:A *1841:A 0
12 *1559:B2 *1438:A1 5.53249e-06
13 *1567:A *1569:A1 4.87939e-05
14 *1569:B1 *463:29 4.82172e-06
15 *1570:B1 *1569:A1 4.3584e-05
16 *1570:B1 *463:29 4.59919e-05
17 *1571:B *1514:A 4.71087e-05
18 *1571:B *1841:A 9.32375e-05
19 *1571:B *463:23 0.00104158
20 *1571:B *463:29 0.00017696
21 *1572:A *1514:A 4.87465e-06
22 *1679:A0 *1438:A1 0.000752851
23 *1816:D *1514:A 3.21081e-06
24 *1817:D *1841:A 0
25 *1818:D *463:8 2.0172e-05
26 *149:104 *1569:A1 0.000132261
27 *149:104 *463:29 7.9642e-06
28 *162:126 *463:29 1.61377e-05
29 *241:12 *1438:A1 0
30 *285:12 *1438:A1 0.000302839
*RES
1 *1817:Q *463:8 4.98 
2 *463:8 *1841:A 5.955 
3 *463:8 *463:23 11.765 
4 *463:23 *463:29 4.955 
5 *463:29 *1569:A1 5.235 
6 *463:29 *1514:A 4.755 
7 *463:23 *1438:A1 14.63 
*END

*D_NET *464 0.00297403
*CONN
*I *1519:A I *D sky130_fd_sc_hd__inv_2
*I *1560:A1 I *D sky130_fd_sc_hd__o31a_1
*I *1818:Q O *D sky130_fd_sc_hd__dfrtp_1
*CAP
1 *1519:A 0.000178754
2 *1560:A1 0.000821181
3 *1818:Q 7.74271e-05
4 *464:6 0.00107736
5 *1552:A *1519:A 0
6 *1552:B *1519:A 1.38207e-05
7 *1661:A1 *1519:A 0.00029653
8 *1679:A1 *1560:A1 2.53714e-05
9 *1724:A *1560:A1 0
10 *1764:A *1519:A 0
11 *1781:CLK *1560:A1 0
12 *1817:D *1560:A1 9.0649e-05
13 *1818:D *1560:A1 0.000108453
14 *1818:RESET_B *1560:A1 2.54715e-05
15 *162:126 *1560:A1 1.7635e-05
16 *245:12 *1519:A 0.000130948
17 *246:8 *1519:A 2.69153e-05
18 *266:161 *1519:A 8.35118e-05
*RES
1 *1818:Q *464:6 2.395 
2 *464:6 *1560:A1 16.28 
3 *464:6 *1519:A 10.07 
*END

*D_NET *465 0.00262364
*CONN
*I *1847:A I *D sky130_fd_sc_hd__dlygate4sd3_1
*I *1518:A I *D sky130_fd_sc_hd__xor2_1
*I *1819:Q O *D sky130_fd_sc_hd__dfrtp_1
*CAP
1 *1847:A 5.25752e-05
2 *1518:A 0.000908537
3 *1819:Q 0
4 *465:4 0.000961112
5 *1661:A1 *1518:A 0.000398241
6 *1818:CLK *1518:A 9.93004e-05
7 *1819:D *1518:A 0
8 *1819:RESET_B *1518:A 5.86575e-05
9 *1819:RESET_B *1847:A 4.89295e-05
10 *380:103 *1518:A 2.8531e-05
11 *390:139 *1518:A 6.77558e-05
*RES
1 *1819:Q *465:4 1.6 
2 *465:4 *1518:A 19.025 
3 *465:4 *1847:A 2.665 
*END

*D_NET *466 0.0044094
*CONN
*I *1532:B2 I *D sky130_fd_sc_hd__a2bb2o_1
*I *1526:A1 I *D sky130_fd_sc_hd__a22oi_1
*I *1534:A1 I *D sky130_fd_sc_hd__o31a_1
*I *1535:A I *D sky130_fd_sc_hd__xor2_1
*I *1437:B2 I *D sky130_fd_sc_hd__o221ai_1
*I *1820:Q O *D sky130_fd_sc_hd__dfrtp_2
*CAP
1 *1532:B2 0
2 *1526:A1 0.00011501
3 *1534:A1 0.000146751
4 *1535:A 0.000154111
5 *1437:B2 0
6 *1820:Q 0.000452415
7 *466:57 0.000199943
8 *466:20 0.000229011
9 *466:18 0.000544102
10 *466:14 0.0008598
11 *1526:A2 *1526:A1 2.04923e-05
12 *1526:B2 *1535:A 8.35106e-05
13 *1532:A2_N *1526:A1 0
14 *1532:B1 *1526:A1 9.47454e-05
15 *1534:A2 *1534:A1 3.4026e-05
16 *1534:A3 *466:14 5.93876e-05
17 *1534:A3 *466:57 4.5138e-05
18 *1534:B1 *1534:A1 4.4908e-05
19 *1594:A2 *1535:A 0.00015264
20 *1594:A3 *1526:A1 1.34361e-05
21 *1594:A3 *466:57 2.78732e-05
22 *1646:C *1526:A1 0
23 *1820:D *466:57 0
24 *161:86 *1534:A1 0.000185635
25 *161:86 *466:20 0.000137355
26 *162:89 *466:14 0.000111293
27 *252:25 *1535:A 9.09788e-06
28 *261:10 *1535:A 3.30434e-05
29 *266:155 *1534:A1 7.79767e-06
30 *266:155 *1535:A 0
31 *278:111 *466:14 0.000194921
32 *278:111 *466:18 0.000452956
*RES
1 *1820:Q *466:14 12.095 
2 *466:14 *466:18 6.245 
3 *466:18 *466:20 1.635 
4 *466:20 *1437:B2 3.6 
5 *466:20 *1535:A 6.735 
6 *466:18 *1534:A1 6.81 
7 *466:14 *466:57 3.635 
8 *466:57 *1526:A1 5.79 
9 *466:57 *1532:B2 3.6 
*END

*D_NET *467 0.00170241
*CONN
*I *1488:A I *D sky130_fd_sc_hd__inv_2
*I *1625:A1 I *D sky130_fd_sc_hd__a32o_1
*I *1827:A I *D sky130_fd_sc_hd__dlygate4sd3_1
*I *1807:Q O *D sky130_fd_sc_hd__dfrtp_1
*CAP
1 *1488:A 6.86454e-05
2 *1625:A1 0
3 *1827:A 0.000114539
4 *1807:Q 0
5 *467:31 0.000378172
6 *467:4 0.000424066
7 *1624:A1 *467:31 6.10039e-05
8 *1624:B1 *467:31 4.82863e-05
9 *1625:A2 *467:31 6.44968e-05
10 *1625:A3 *467:31 4.29526e-05
11 *1625:B1 *1488:A 2.24829e-05
12 *1625:B2 *1488:A 6.90876e-05
13 *1625:B2 *467:31 0.00016734
14 *1807:D *1827:A 0.000197252
15 *1807:RESET_B *1827:A 0
16 *383:48 *1827:A 4.40899e-05
*RES
1 *1807:Q *467:4 1.6 
2 *467:4 *1827:A 8.12 
3 *467:4 *467:31 6.84 
4 *467:31 *1625:A1 1.6 
5 *467:31 *1488:A 3.085 
*END

*D_NET *468 0.00472423
*CONN
*I *1486:A_N I *D sky130_fd_sc_hd__nand3b_1
*I *1612:C I *D sky130_fd_sc_hd__and3_1
*I *1620:A1 I *D sky130_fd_sc_hd__a32o_1
*I *1482:C I *D sky130_fd_sc_hd__nand3_1
*I *1857:A I *D sky130_fd_sc_hd__dlygate4sd3_1
*I *1808:Q O *D sky130_fd_sc_hd__dfrtp_1
*CAP
1 *1486:A_N 0.000167771
2 *1612:C 0
3 *1620:A1 6.59e-05
4 *1482:C 0
5 *1857:A 0.00014968
6 *1808:Q 0
7 *468:53 0.000432715
8 *468:36 0.00068115
9 *468:21 0.000659783
10 *468:4 0.000459158
11 *1482:A *468:36 0.000118176
12 *1486:C *1486:A_N 3.12916e-05
13 *1500:A *468:36 0.000177873
14 *1612:A *1486:A_N 6.70478e-05
15 *1612:A *468:53 5.28255e-05
16 *1615:B1 *468:36 4.89395e-05
17 *1617:A1 *1857:A 8.52972e-05
18 *1617:A2 *1857:A 0.000211348
19 *1618:B1 *468:36 4.59022e-06
20 *1618:B2 *468:53 8.41384e-05
21 *1619:A1 *468:36 9.05036e-05
22 *1619:A2 *468:36 2.3228e-05
23 *1620:B1 *1620:A1 6.77002e-05
24 *1620:B1 *468:53 3.63576e-05
25 *1621:B1 *1620:A1 2.07473e-05
26 *1754:A *1857:A 8.64599e-05
27 *1808:RESET_B *1857:A 0
28 *1808:RESET_B *468:21 0.000135538
29 *148:45 *468:53 8.35157e-05
30 *153:27 *468:53 0.000112595
31 *213:8 *1486:A_N 0.000194036
32 *213:8 *468:53 2.8323e-05
33 *228:6 *468:36 3.09774e-05
34 *254:63 *468:36 0.00017338
35 *263:43 *468:53 0.000111293
36 *339:61 *468:53 3.18863e-05
37 *383:48 *1857:A 0
*RES
1 *1808:Q *468:4 1.6 
2 *468:4 *1857:A 9.305 
3 *468:4 *468:21 3.915 
4 *468:21 *1482:C 1.6 
5 *468:21 *468:36 11.5 
6 *468:36 *1620:A1 2.74 
7 *468:36 *468:53 9.1 
8 *468:53 *1612:C 1.6 
9 *468:53 *1486:A_N 5.11 
*END

*D_NET *469 0.0120922
*CONN
*I *1611:B1 I *D sky130_fd_sc_hd__a21oi_1
*I *1499:B I *D sky130_fd_sc_hd__nand3_1
*I *1616:A1 I *D sky130_fd_sc_hd__o211ai_1
*I *1502:B1 I *D sky130_fd_sc_hd__a21o_2
*I *1833:A I *D sky130_fd_sc_hd__dlygate4sd3_1
*I *1809:Q O *D sky130_fd_sc_hd__dfrtp_2
*CAP
1 *1611:B1 6.19733e-05
2 *1499:B 9.62421e-05
3 *1616:A1 0.000118279
4 *1502:B1 1.63748e-05
5 *1833:A 0.000464362
6 *1809:Q 0
7 *469:70 0.000349263
8 *469:60 0.000404965
9 *469:47 0.000544787
10 *469:45 0.00222213
11 *469:4 0.00236633
12 *1833:A *1683:A0 3.9002e-05
13 *469:45 *1683:A0 3.91427e-06
14 *469:45 *470:46 0.000221181
15 *469:45 *484:10 0.000288934
16 *1457:A2 *469:45 0.000159964
17 *1458:C1 *469:45 1.614e-05
18 *1496:C1 *469:45 0.000276462
19 *1498:A *469:45 6.21059e-05
20 *1499:A *1499:B 2.30908e-05
21 *1499:A *469:70 9.21178e-05
22 *1506:A2 *469:45 1.19928e-05
23 *1507:C *469:45 0.000461914
24 *1600:A2 *469:45 1.21329e-05
25 *1600:B2 *469:45 0.000113222
26 *1604:B1 *469:45 8.40213e-05
27 *1607:B1 *469:45 0.000245893
28 *1608:A *469:45 0.00015829
29 *1608:C *469:45 1.26548e-05
30 *1609:A2 *469:45 0.000179981
31 *1609:B1 *469:45 0
32 *1611:A2 *1502:B1 4.04987e-06
33 *1611:A2 *1611:B1 1.81745e-05
34 *1611:A2 *469:60 1.78548e-05
35 *1615:B2 *1499:B 7.3044e-06
36 *1615:B2 *1616:A1 0
37 *1615:B2 *469:70 8.23457e-05
38 *1616:B1 *1616:A1 4.66108e-05
39 *1616:C1 *1616:A1 6.70821e-05
40 *1809:D *1833:A 2.68464e-05
41 *1809:RESET_B *1833:A 2.98587e-05
42 *148:35 *469:45 6.87729e-05
43 *148:39 *469:45 0.000252928
44 *149:20 *469:45 0.000467438
45 *163:61 *1833:A 4.89362e-05
46 *178:33 *469:45 2.83338e-05
47 *223:18 *1502:B1 4.87465e-06
48 *223:18 *469:47 4.40028e-05
49 *223:18 *469:60 2.203e-05
50 *225:14 *469:45 3.57511e-05
51 *225:14 *469:47 0.000574761
52 *226:14 *1611:B1 0
53 *229:10 *469:60 8.41307e-05
54 *229:16 *469:47 4.24744e-05
55 *234:6 *469:45 9.27255e-06
56 *263:43 *1499:B 0.000246579
57 *314:29 *1499:B 1.01661e-05
58 *314:29 *469:70 5.18691e-05
59 *317:18 *469:45 0
60 *325:14 *1833:A 0
61 *325:14 *469:45 0.000421357
62 *331:8 *1616:A1 0.000156658
63 *408:28 *469:45 0.000114056
*RES
1 *1809:Q *469:4 1.6 
2 *469:4 *1833:A 11.915 
3 *469:4 *469:45 46.4 
4 *469:45 *469:47 7.005 
5 *469:47 *1502:B1 1.96 
6 *469:47 *469:60 3.15 
7 *469:60 *469:70 8.08 
8 *469:70 *1616:A1 4.135 
9 *469:70 *1499:B 9.065 
10 *469:60 *1611:B1 3.01 
*END

*D_NET *470 0.00680727
*CONN
*I *1828:A I *D sky130_fd_sc_hd__dlygate4sd3_1
*I *1459:B1 I *D sky130_fd_sc_hd__o21ai_1
*I *1609:A1 I *D sky130_fd_sc_hd__a31o_1
*I *1504:B1 I *D sky130_fd_sc_hd__a31o_1
*I *1507:B I *D sky130_fd_sc_hd__nand3_2
*I *1810:Q O *D sky130_fd_sc_hd__dfrtp_2
*CAP
1 *1828:A 0
2 *1459:B1 0
3 *1609:A1 0
4 *1504:B1 0
5 *1507:B 0.000261642
6 *1810:Q 0.000485251
7 *470:46 0.000582751
8 *470:36 0.000440979
9 *470:26 0.00094498
10 *470:12 0.00131036
11 *470:46 *480:75 0
12 *470:46 *480:88 0
13 *1457:A1 *470:36 4.15208e-05
14 *1457:A1 *470:46 6.69608e-06
15 *1457:A2 *470:36 7.15231e-05
16 *1457:A2 *470:46 5.83121e-06
17 *1457:B1 *470:26 4.99619e-05
18 *1458:C1 *470:46 8.53113e-06
19 *1465:A2 *470:26 5.49536e-05
20 *1507:C *1507:B 5.19229e-05
21 *1508:A1 *470:26 6.82452e-05
22 *1508:A2 *470:26 0.000190637
23 *1508:A2 *470:36 4.82863e-05
24 *1601:A2 *470:26 0
25 *1604:B1 *1507:B 7.42989e-06
26 *1607:B1 *1507:B 0
27 *1607:B1 *470:46 6.74079e-05
28 *1609:A3 *470:46 1.56428e-05
29 *1609:B1 *470:36 4.82919e-05
30 *1718:A *470:12 6.74079e-05
31 *1772:D *470:12 3.00381e-05
32 *173:162 *1507:B 0
33 *178:33 *470:36 0.000135406
34 *183:12 *470:26 3.42469e-05
35 *183:12 *470:36 2.49909e-05
36 *185:18 *470:46 0.000112123
37 *186:6 *470:26 1.34503e-05
38 *234:6 *1507:B 4.88572e-05
39 *317:18 *470:36 0.000179015
40 *321:8 *470:12 1.91597e-05
41 *325:14 *470:46 5.83121e-06
42 *339:22 *470:12 0
43 *381:116 *470:12 0.000100308
44 *385:102 *470:26 0
45 *385:108 *470:26 0
46 *388:122 *470:26 0.000342247
47 *388:139 *470:12 0.00027299
48 *388:139 *470:26 0.000311331
49 *388:152 *470:12 0.000125838
50 *469:45 *470:46 0.000221181
*RES
1 *1810:Q *470:12 15.335 
2 *470:12 *470:26 19.93 
3 *470:26 *470:36 7.735 
4 *470:36 *470:46 8.225 
5 *470:46 *1507:B 7.47 
6 *470:46 *1504:B1 3.6 
7 *470:36 *1609:A1 1.6 
8 *470:26 *1459:B1 1.6 
9 *470:12 *1828:A 1.6 
*END

*D_NET *471 0.00486301
*CONN
*I *1846:A I *D sky130_fd_sc_hd__dlygate4sd3_1
*I *1604:A1 I *D sky130_fd_sc_hd__o221a_1
*I *1466:A1 I *D sky130_fd_sc_hd__o21ai_2
*I *1509:B I *D sky130_fd_sc_hd__nand2_1
*I *1460:A I *D sky130_fd_sc_hd__inv_2
*I *1811:Q O *D sky130_fd_sc_hd__dfrtp_2
*CAP
1 *1846:A 0
2 *1604:A1 0.000411175
3 *1466:A1 0
4 *1509:B 6.73058e-05
5 *1460:A 9.12562e-05
6 *1811:Q 0.000179463
7 *471:37 0.000134069
8 *471:31 0.000749394
9 *471:18 0.000796575
10 *471:12 0.000613324
11 *471:12 *1683:A0 0.0001076
12 *471:18 *1683:A0 7.11301e-05
13 *1465:A1 *471:31 0
14 *1466:B1 *471:37 1.34503e-05
15 *1509:A *1509:B 0.000186099
16 *1509:A *1604:A1 3.13459e-05
17 *1509:A *471:31 8.53113e-06
18 *1509:A *471:37 4.77719e-05
19 *1601:A2 *1604:A1 0.000158066
20 *1756:A *471:37 0
21 *1811:D *471:18 0
22 *1811:RESET_B *471:12 0
23 *1811:RESET_B *471:18 5.046e-05
24 *184:8 *471:37 4.00541e-06
25 *187:6 *1460:A 2.86975e-05
26 *193:16 *1604:A1 0.000113055
27 *230:23 *1509:B 4.66108e-05
28 *230:23 *1604:A1 0.000273008
29 *235:8 *1509:B 0.000187759
30 *235:8 *471:31 7.58692e-05
31 *317:18 *471:18 0
32 *317:18 *471:31 0
33 *385:102 *1604:A1 0.000402641
34 *385:108 *1604:A1 1.43521e-05
35 *385:108 *471:18 0
36 *385:108 *471:31 0
37 *388:94 *471:12 0
*RES
1 *1811:Q *471:12 8.81 
2 *471:12 *471:18 9.11 
3 *471:18 *1460:A 5.1 
4 *471:18 *471:31 4.44 
5 *471:31 *471:37 3.155 
6 *471:37 *1509:B 8.195 
7 *471:37 *1466:A1 1.6 
8 *471:31 *1604:A1 13.365 
9 *471:12 *1846:A 1.6 
*END

*D_NET *472 0.00609162
*CONN
*I *1829:A I *D sky130_fd_sc_hd__dlygate4sd3_1
*I *1599:B1 I *D sky130_fd_sc_hd__a2bb2o_1
*I *1476:B1 I *D sky130_fd_sc_hd__o21ai_2
*I *1468:B1 I *D sky130_fd_sc_hd__a31o_1
*I *1450:B2 I *D sky130_fd_sc_hd__a32oi_1
*I *1812:Q O *D sky130_fd_sc_hd__dfrtp_2
*CAP
1 *1829:A 0
2 *1599:B1 0.000226781
3 *1476:B1 7.00384e-05
4 *1468:B1 0.000345013
5 *1450:B2 0.00013493
6 *1812:Q 0.000188675
7 *472:54 0.000572789
8 *472:24 0.000761604
9 *472:18 0.000757423
10 *472:12 0.000388467
11 *1450:A3 *1450:B2 9.46401e-05
12 *1450:B1 *1450:B2 2.83596e-05
13 *1450:B1 *1468:B1 0
14 *1467:A1 *1468:B1 2.6571e-05
15 *1467:A2 *1468:B1 1.88602e-05
16 *1468:A1 *1468:B1 2.06509e-05
17 *1476:A2 *1468:B1 5.31562e-05
18 *1477:B1 *1468:B1 8.44359e-05
19 *1478:A2 *1450:B2 4.89362e-05
20 *1478:B1 *1468:B1 0
21 *1478:B2 *1450:B2 0.000127471
22 *1478:B2 *1468:B1 0.000335277
23 *1479:A1 *472:54 1.26626e-05
24 *1531:A1 *472:12 0.000160342
25 *1531:B1 *472:12 4.77769e-05
26 *1532:B1 *472:12 7.4793e-05
27 *1532:B1 *472:18 6.73498e-05
28 *1538:B1 *1468:B1 0
29 *1589:A2 *1599:B1 1.26548e-05
30 *1589:A2 *472:54 0.00011686
31 *1589:B1 *1476:B1 4.46754e-05
32 *1592:A2 *472:24 0.000121659
33 *1592:B1 *472:24 8.34281e-06
34 *1592:B2 *472:24 4.77807e-05
35 *1593:A *472:54 6.28132e-05
36 *1593:B *472:24 1.14169e-05
37 *1595:A1 *472:12 3.72007e-05
38 *1598:A1 *1599:B1 7.90733e-05
39 *1598:B1 *1599:B1 8.53113e-06
40 *163:111 *472:18 3.08579e-05
41 *163:124 *472:12 3.97568e-05
42 *193:44 *1599:B1 5.12942e-05
43 *194:30 *1476:B1 4.66108e-05
44 *195:12 *1468:B1 4.19967e-05
45 *259:102 *1599:B1 0
46 *259:102 *472:18 5.92781e-05
47 *259:102 *472:54 0.000141989
48 *263:106 *1468:B1 0
49 *278:123 *472:24 0.000309791
50 *308:10 *1599:B1 0.000108647
51 *312:10 *472:24 6.33849e-05
52 *385:102 *1599:B1 0
53 *385:102 *472:54 0
*RES
1 *1812:Q *472:12 9.845 
2 *472:12 *472:18 5.63 
3 *472:18 *472:24 8.075 
4 *472:24 *1450:B2 4.825 
5 *472:24 *1468:B1 12.9087 
6 *472:18 *472:54 5.97 
7 *472:54 *1476:B1 4.74 
8 *472:54 *1599:B1 8.235 
9 *472:12 *1829:A 1.6 
*END

*D_NET *473 0.00909423
*CONN
*I *1849:A I *D sky130_fd_sc_hd__dlygate4sd3_1
*I *1442:B1 I *D sky130_fd_sc_hd__a21oi_1
*I *1450:A1 I *D sky130_fd_sc_hd__a32oi_1
*I *1594:A1 I *D sky130_fd_sc_hd__o31a_1
*I *1470:C1 I *D sky130_fd_sc_hd__o211ai_4
*I *1474:B1_N I *D sky130_fd_sc_hd__o21bai_2
*I *1813:Q O *D sky130_fd_sc_hd__dfrtp_4
*CAP
1 *1849:A 0.000170326
2 *1442:B1 0
3 *1450:A1 0.000109187
4 *1594:A1 0.000447053
5 *1470:C1 0
6 *1474:B1_N 3.40363e-05
7 *1813:Q 0
8 *473:38 0.000625311
9 *473:32 0.000167927
10 *473:25 0.000408504
11 *473:8 0.0014336
12 *473:4 0.00126024
13 *1594:A1 *479:24 0.000178226
14 *1849:A *1586:A1 3.09164e-05
15 *473:8 *1586:A1 0.000389067
16 *473:8 *1681:A0 0.000523332
17 *473:8 *491:43 2.0722e-05
18 *473:25 *1473:A1 4.82863e-05
19 *473:25 *482:104 3.57349e-05
20 *473:25 *483:61 0.000157595
21 *1442:A1 *473:32 0.000159156
22 *1450:A3 *1450:A1 0.000156589
23 *1450:A3 *1594:A1 0.000127179
24 *1450:B1 *473:38 5.47426e-05
25 *1474:A2 *1474:B1_N 9.03508e-06
26 *1474:A2 *473:8 2.11084e-05
27 *1474:A2 *473:25 5.78094e-05
28 *1478:A1 *473:38 6.88421e-05
29 *1478:B1 *1594:A1 2.59569e-05
30 *1585:B1 *1849:A 1.83756e-05
31 *1585:B1 *473:8 7.68414e-06
32 *1594:A2 *1594:A1 6.72833e-06
33 *1646:A *473:32 0.000158066
34 *1646:C *1594:A1 0.000114302
35 *1647:A2 *473:8 1.54111e-05
36 *1647:B2 *473:8 1.33285e-05
37 *1732:A *473:8 3.00381e-05
38 *1797:D *473:8 0.00012349
39 *1797:RESET_B *473:8 4.94474e-05
40 *173:91 *473:25 0.000155928
41 *197:6 *473:32 0.000231783
42 *201:6 *473:25 0.00027042
43 *254:63 *1849:A 0
44 *254:82 *1849:A 0
45 *263:43 *473:8 3.45391e-05
46 *263:47 *473:8 3.8194e-05
47 *313:12 *1594:A1 4.90291e-05
48 *314:10 *473:8 0.000824363
49 *383:25 *1849:A 0
50 *383:31 *1849:A 0
51 *383:156 *473:8 2.7441e-05
52 *385:100 *1594:A1 0.000101621
53 *400:36 *473:25 2.49909e-05
54 *400:36 *473:32 7.85634e-05
*RES
1 *1813:Q *473:4 1.6 
2 *473:4 *473:8 21.51 
3 *473:8 *1474:B1_N 2.215 
4 *473:8 *473:25 10.585 
5 *473:25 *1470:C1 1.6 
6 *473:25 *473:32 3.555 
7 *473:32 *473:38 5.38 
8 *473:38 *1594:A1 14.51 
9 *473:38 *1450:A1 3.085 
10 *473:32 *1442:B1 1.6 
11 *473:4 *1849:A 8.45 
*END

*D_NET *474 0.00769325
*CONN
*I *1438:A4 I *D sky130_fd_sc_hd__o41a_1
*I *1577:C_N I *D sky130_fd_sc_hd__or3b_1
*I *1563:A2 I *D sky130_fd_sc_hd__o21a_1
*I *1512:A I *D sky130_fd_sc_hd__xor2_2
*I *1586:A1 I *D sky130_fd_sc_hd__a22oi_2
*I *1583:A1_N I *D sky130_fd_sc_hd__o2bb2ai_1
*I *1814:Q O *D sky130_fd_sc_hd__dfrtp_4
*CAP
1 *1438:A4 9.4506e-05
2 *1577:C_N 0.000214665
3 *1563:A2 0
4 *1512:A 0
5 *1586:A1 0.00029729
6 *1583:A1_N 0.000282547
7 *1814:Q 0
8 *474:66 0.000592743
9 *474:57 0.000500974
10 *474:25 0.000689196
11 *474:21 0.000722079
12 *474:4 0.00039532
13 *1586:A1 *1681:A0 0
14 *474:25 *1513:A 3.57224e-05
15 *474:25 *475:18 8.34426e-05
16 *1512:B *1586:A1 4.18603e-06
17 *1512:B *474:25 5.7229e-05
18 *1513:B *474:25 6.33761e-05
19 *1516:B *1577:C_N 0.000285439
20 *1562:A *1438:A4 0.000208579
21 *1562:A *1577:C_N 0.00024756
22 *1577:A *1577:C_N 0.000220915
23 *1578:B *474:25 0.000323441
24 *1581:B2 *474:25 0.000117832
25 *1583:B1 *1583:A1_N 0.000160641
26 *1585:B1 *1586:A1 0.000136947
27 *1586:A2 *1586:A1 0
28 *1586:B1 *1586:A1 4.66108e-05
29 *1586:B2 *1586:A1 0
30 *1679:A0 *1438:A4 8.02853e-05
31 *1679:A0 *1577:C_N 6.74403e-05
32 *1814:D *1583:A1_N 0.000122331
33 *1849:A *1586:A1 3.09164e-05
34 *149:70 *474:57 0.000118513
35 *240:12 *1577:C_N 9.01925e-05
36 *254:82 *474:57 6.74079e-05
37 *263:47 *1586:A1 3.64998e-06
38 *278:61 *474:21 0.000163175
39 *278:61 *474:57 8.05167e-05
40 *279:23 *474:25 9.05569e-05
41 *286:16 *474:66 9.70285e-05
42 *288:10 *474:66 0.000265271
43 *298:6 *1577:C_N 0.000155601
44 *360:168 *1583:A1_N 7.63204e-05
45 *360:168 *474:25 0
46 *383:25 *474:25 0
47 *385:26 *1583:A1_N 1.37328e-05
48 *473:8 *1586:A1 0.000389067
*RES
1 *1814:Q *474:4 1.6 
2 *474:4 *1583:A1_N 11.15 
3 *474:4 *474:21 2.52 
4 *474:21 *474:25 12.05 
5 *474:25 *1586:A1 10.275 
6 *474:25 *1512:A 3.6 
7 *474:21 *474:57 8.26 
8 *474:57 *1563:A2 1.6 
9 *474:57 *474:66 5.555 
10 *474:66 *1577:C_N 10.905 
11 *474:66 *1438:A4 6.255 
*END

*D_NET *475 0.0053738
*CONN
*I *1831:A I *D sky130_fd_sc_hd__dlygate4sd3_1
*I *1438:A3 I *D sky130_fd_sc_hd__o41a_1
*I *1563:A1 I *D sky130_fd_sc_hd__o21a_1
*I *1581:A1 I *D sky130_fd_sc_hd__o22ai_1
*I *1513:A I *D sky130_fd_sc_hd__xor2_2
*I *1815:Q O *D sky130_fd_sc_hd__dfrtp_4
*CAP
1 *1831:A 0.0001442
2 *1438:A3 0.000381602
3 *1563:A1 8.55519e-05
4 *1581:A1 2.89741e-05
5 *1513:A 0.000169154
6 *1815:Q 0
7 *475:18 0.000329882
8 *475:14 0.000543391
9 *475:8 0.000789491
10 *475:6 0.000226005
11 *1513:A *1681:A0 0.000172771
12 *1831:A *1681:A0 0
13 *475:8 *1681:A0 0
14 *475:14 *1681:A0 0
15 *475:18 *1681:A0 0.000338226
16 *1513:B *1513:A 7.98631e-05
17 *1515:A *1438:A3 0.000118081
18 *1563:B1 *1563:A1 0.000123225
19 *1576:B2 *1831:A 0
20 *1581:B1 *1581:A1 2.49909e-05
21 *1581:B2 *1513:A 0.000143081
22 *254:82 *1438:A3 0.000265276
23 *254:99 *1438:A3 0.000223902
24 *286:16 *1563:A1 0.000194694
25 *360:168 *1831:A 7.5431e-05
26 *360:168 *475:8 5.13124e-05
27 *360:168 *475:14 8.92401e-05
28 *381:54 *1831:A 0.0001249
29 *385:100 *1513:A 7.79509e-05
30 *462:32 *1438:A3 0.000453444
31 *474:25 *1513:A 3.57224e-05
32 *474:25 *475:18 8.34426e-05
*RES
1 *1815:Q *475:6 3.6 
2 *475:6 *475:8 1.635 
3 *475:8 *475:14 7.52 
4 *475:14 *475:18 5.93 
5 *475:18 *1513:A 8.265 
6 *475:18 *1581:A1 4.05 
7 *475:14 *1563:A1 3.775 
8 *475:8 *1438:A3 11.985 
9 *475:6 *1831:A 6.885 
*END

*D_NET *476 0.00676616
*CONN
*I *1642:A1 I *D sky130_fd_sc_hd__mux2_1
*I *1497:A3 I *D sky130_fd_sc_hd__o31ai_1
*I *1427:B I *D sky130_fd_sc_hd__nor2_2
*I *1489:B1 I *D sky130_fd_sc_hd__o211ai_1
*I *1490:A I *D sky130_fd_sc_hd__inv_2
*I *1644:B1 I *D sky130_fd_sc_hd__o21ai_1
*I *1798:Q O *D sky130_fd_sc_hd__dfrtp_4
*CAP
1 *1642:A1 0.000318552
2 *1497:A3 0
3 *1427:B 0.000231087
4 *1489:B1 6.36609e-05
5 *1490:A 0.000140033
6 *1644:B1 0
7 *1798:Q 0
8 *476:45 0.000270007
9 *476:32 0.000169404
10 *476:15 0.000409013
11 *476:8 0.000603182
12 *476:4 0.000719577
13 *1427:B *1420:B 0
14 *1427:B *1427:A 0.00025275
15 *1489:B1 *1427:A 4.21314e-05
16 *1489:B1 *477:23 9.50342e-06
17 *1489:B1 *477:32 0.000126679
18 *1489:B1 *478:23 0.000161363
19 *1490:A *1658:A1 0.000130664
20 *1490:A *480:33 1.77595e-05
21 *476:32 *1497:A1 4.82919e-05
22 *1497:B1 *1427:B 6.74079e-05
23 *1644:A1 *476:8 0.000120655
24 *1644:A1 *476:15 0.000234674
25 *1644:A2 *476:8 8.40213e-05
26 *1644:A2 *476:15 0.000441676
27 *1885:A *1642:A1 2.67022e-05
28 *149:20 *476:15 0.000845158
29 *149:20 *476:32 0.00012406
30 *149:20 *476:45 5.83121e-06
31 *152:12 *1427:B 1.16578e-05
32 *153:12 *476:15 0.000646443
33 *153:12 *476:32 0.00010978
34 *216:6 *1490:A 4.77719e-05
35 *254:33 *476:32 0.000109019
36 *254:33 *476:45 7.3151e-05
37 *263:92 *1427:B 3.04704e-05
38 *360:113 *1642:A1 7.4027e-05
*RES
1 *1798:Q *476:4 1.6 
2 *476:4 *476:8 6.585 
3 *476:8 *1644:B1 1.6 
4 *476:8 *476:15 10.11 
5 *476:15 *1490:A 8.3 
6 *476:15 *476:32 2.52 
7 *476:32 *1489:B1 7.745 
8 *476:32 *476:45 0.795 
9 *476:45 *1427:B 10.475 
10 *476:45 *1497:A3 1.6 
11 *476:4 *1642:A1 9.695 
*END

*D_NET *477 0.00491819
*CONN
*I *1640:A1 I *D sky130_fd_sc_hd__mux2_1
*I *1427:A I *D sky130_fd_sc_hd__nor2_2
*I *1497:A2 I *D sky130_fd_sc_hd__o31ai_1
*I *1489:C1 I *D sky130_fd_sc_hd__o211ai_1
*I *1491:B1_N I *D sky130_fd_sc_hd__o21bai_1
*I *1799:Q O *D sky130_fd_sc_hd__dfrtp_2
*CAP
1 *1640:A1 0.000111691
2 *1427:A 0.000182971
3 *1497:A2 2.27913e-05
4 *1489:C1 0
5 *1491:B1_N 0
6 *1799:Q 0
7 *477:32 0.000288496
8 *477:23 0.000382342
9 *477:12 0.000834823
10 *477:4 0.000646906
11 *1427:A *478:23 7.21296e-06
12 *1427:A *478:36 1.53032e-05
13 *477:12 *1658:A1 0.000252282
14 *477:12 *1691:A0 9.41579e-05
15 *477:12 *478:23 0
16 *477:23 *478:23 5.63507e-05
17 *1427:B *1427:A 0.00025275
18 *1489:B1 *1427:A 4.21314e-05
19 *1489:B1 *477:23 9.50342e-06
20 *1489:B1 *477:32 0.000126679
21 *1491:A1 *477:23 0.000116158
22 *1491:A2 *477:23 3.64622e-05
23 *1497:B1 *1427:A 1.52776e-05
24 *1640:A0 *1640:A1 4.89395e-05
25 *1799:D *477:12 0.000194688
26 *1800:RESET_B *477:12 0.000160266
27 *147:14 *477:23 0
28 *149:20 *1427:A 0.000140912
29 *152:12 *1427:A 7.58604e-05
30 *218:8 *477:23 3.45679e-05
31 *254:33 *1497:A2 2.87433e-05
32 *259:135 *1640:A1 0.000173922
33 *259:135 *477:12 0.000335194
34 *263:92 *1427:A 0.00023081
*RES
1 *1799:Q *477:4 1.6 
2 *477:4 *477:12 17.035 
3 *477:12 *1491:B1_N 1.6 
4 *477:12 *477:23 6.83 
5 *477:23 *1489:C1 3.6 
6 *477:23 *477:32 1.635 
7 *477:32 *1497:A2 3.8775 
8 *477:32 *1427:A 9.045 
9 *477:4 *1640:A1 4.465 
*END

*D_NET *478 0.00797989
*CONN
*I *1481:B1 I *D sky130_fd_sc_hd__a211o_1
*I *1428:B I *D sky130_fd_sc_hd__nor2_4
*I *1483:A I *D sky130_fd_sc_hd__inv_2
*I *1480:B1 I *D sky130_fd_sc_hd__o21ai_1
*I *1497:A1 I *D sky130_fd_sc_hd__o31ai_1
*I *1638:A1 I *D sky130_fd_sc_hd__mux2_1
*I *1800:Q O *D sky130_fd_sc_hd__dfrtp_4
*CAP
1 *1481:B1 0.000208599
2 *1428:B 0.000232107
3 *1483:A 0
4 *1480:B1 3.89063e-05
5 *1497:A1 9.71884e-06
6 *1638:A1 0.000571847
7 *1800:Q 0.000280546
8 *478:57 0.00024576
9 *478:53 0.000370949
10 *478:36 0.000333625
11 *478:23 0.000808966
12 *478:8 0.00150562
13 *1481:B1 *1496:B1 4.45017e-05
14 *1638:A1 *1691:A0 2.00725e-05
15 *478:23 *1658:A1 0
16 *478:36 *1658:A1 0
17 *1427:A *478:23 7.21296e-06
18 *1427:A *478:36 1.53032e-05
19 *1480:A2 *1480:B1 1.08758e-05
20 *1481:A1 *1481:B1 2.72371e-05
21 *1481:C1 *1481:B1 0.000160666
22 *1484:A2 *1480:B1 4.66108e-05
23 *1484:A2 *478:53 3.74161e-05
24 *1489:B1 *478:23 0.000161363
25 *1491:A1 *478:23 0.000116158
26 *1496:C1 *1481:B1 0.000115076
27 *1497:B1 *1481:B1 0.000122897
28 *1497:B1 *478:53 0.000177512
29 *1498:A *1481:B1 0.000130387
30 *1498:A *478:53 0.000176281
31 *1638:A0 *1638:A1 4.77719e-05
32 *1799:D *478:23 0.000101637
33 *1799:RESET_B *478:23 6.97275e-05
34 *1800:D *1638:A1 0.000196016
35 *1823:A *478:23 0
36 *148:41 *478:53 0.000151474
37 *148:43 *1480:B1 2.49909e-05
38 *148:43 *478:53 5.83121e-06
39 *149:20 *1497:A1 4.82919e-05
40 *149:20 *478:36 0.000132875
41 *149:20 *478:53 0.000195865
42 *151:6 *1428:B 4.63995e-05
43 *151:10 *1428:B 0.000188823
44 *151:10 *478:57 4.66108e-05
45 *151:26 *1481:B1 9.42675e-05
46 *153:12 *478:23 2.7881e-05
47 *153:12 *478:36 5.92269e-05
48 *166:10 *478:36 7.06865e-05
49 *166:36 *478:36 2.92496e-05
50 *210:8 *1428:B 3.57349e-05
51 *210:8 *478:57 4.66108e-05
52 *228:39 *1481:B1 0.000243722
53 *387:29 *1638:A1 3.53405e-05
54 *476:32 *1497:A1 4.82919e-05
55 *477:12 *478:23 0
56 *477:23 *478:23 5.63507e-05
*RES
1 *1800:Q *478:8 4.825 
2 *478:8 *1638:A1 8.26 
3 *478:8 *478:23 13.625 
4 *478:23 *1497:A1 4.05 
5 *478:23 *478:36 5.675 
6 *478:36 *1480:B1 2.41 
7 *478:36 *478:53 7.025 
8 *478:53 *478:57 2.45 
9 *478:57 *1483:A 1.6 
10 *478:57 *1428:B 5.98 
11 *478:53 *1481:B1 10.485 
*END

*D_NET *479 0.0121249
*CONN
*I *1636:A1 I *D sky130_fd_sc_hd__mux2_1
*I *1498:B I *D sky130_fd_sc_hd__nand2_1
*I *1496:B1 I *D sky130_fd_sc_hd__a211o_1
*I *1428:A I *D sky130_fd_sc_hd__nor2_4
*I *1801:Q O *D sky130_fd_sc_hd__dfrtp_4
*CAP
1 *1636:A1 1.88809e-05
2 *1498:B 2.07079e-05
3 *1496:B1 6.83434e-05
4 *1428:A 8.54471e-05
5 *1801:Q 0.000439642
6 *479:41 0.000343385
7 *479:26 0.000617218
8 *479:24 0.00227805
9 *479:12 0.00245913
10 *479:24 *483:36 0.000273008
11 *479:41 *1430:A_N 1.77945e-05
12 *1478:B1 *479:24 0.000222912
13 *1481:B1 *1496:B1 4.45017e-05
14 *1496:C1 *1496:B1 3.02108e-05
15 *1496:C1 *1498:B 5.29658e-05
16 *1496:C1 *479:41 4.11718e-05
17 *1553:B *479:24 0.000199848
18 *1594:A1 *479:24 0.000178226
19 *1636:A0 *479:12 4.05674e-06
20 *1636:A0 *479:24 1.7386e-05
21 *1636:S *1636:A1 5.4155e-06
22 *1636:S *479:12 3.87112e-05
23 *1637:A *479:24 3.07153e-05
24 *1646:C *479:24 0
25 *1732:A *479:24 0.000390451
26 *1769:CLK *479:12 1.42807e-05
27 *1773:CLK *479:12 7.98736e-05
28 *1801:RESET_B *479:12 0
29 *150:40 *1428:A 0.000198156
30 *150:40 *479:26 0.000334794
31 *150:102 *479:26 0.000652217
32 *151:59 *1428:A 0.000156424
33 *151:59 *479:26 0.000389498
34 *151:74 *479:26 0.000594843
35 *161:66 *479:24 0.000642214
36 *228:39 *1496:B1 1.08758e-05
37 *266:119 *479:24 0.000138457
38 *266:155 *479:24 9.90295e-05
39 *384:143 *479:12 0
40 *390:70 *479:12 0.000425507
41 *400:36 *479:24 0.000510583
*RES
1 *1801:Q *479:12 13.37 
2 *479:12 *479:24 40.89 
3 *479:24 *479:26 11.58 
4 *479:26 *1428:A 6 
5 *479:26 *479:41 5.57 
6 *479:41 *1496:B1 3.1 
7 *479:41 *1498:B 2.41 
8 *479:12 *1636:A1 1.96 
*END

*D_NET *480 0.0142408
*CONN
*I *1462:A2 I *D sky130_fd_sc_hd__a21oi_1
*I *1504:A2 I *D sky130_fd_sc_hd__a31o_1
*I *1429:B I *D sky130_fd_sc_hd__nor2_2
*I *1506:B1 I *D sky130_fd_sc_hd__a211o_1
*I *1503:B1 I *D sky130_fd_sc_hd__a21oi_2
*I *1456:A1 I *D sky130_fd_sc_hd__o21ai_1
*I *1452:A I *D sky130_fd_sc_hd__inv_2
*I *1634:A1 I *D sky130_fd_sc_hd__mux2_1
*I *1802:Q O *D sky130_fd_sc_hd__dfrtp_4
*CAP
1 *1462:A2 0
2 *1504:A2 3.86327e-05
3 *1429:B 0.000194369
4 *1506:B1 0
5 *1503:B1 3.99342e-05
6 *1456:A1 0.000185048
7 *1452:A 1.67306e-05
8 *1634:A1 0.000408387
9 *1802:Q 2.09808e-05
10 *480:94 0.000473489
11 *480:88 0.000392342
12 *480:75 0.000252183
13 *480:56 0.000557423
14 *480:41 0.000570329
15 *480:33 0.00275969
16 *480:6 0.00287018
17 *1429:B *1424:A 4.58691e-06
18 *1429:B *1429:A 0.000115116
19 *1429:B *1444:A1 4.77807e-05
20 *1429:B *492:42 2.14363e-05
21 *1429:B *492:44 1.47211e-05
22 *1456:A1 *1458:A1 3.82741e-05
23 *1634:A1 *489:18 0.000185405
24 *480:33 *1420:B 0.000122797
25 *480:33 *1462:B1 7.60965e-05
26 *480:33 *1489:A1 2.30292e-05
27 *480:33 *492:68 4.02319e-05
28 *480:41 *481:47 1.88656e-05
29 *480:41 *481:59 0.000359541
30 *480:75 *1458:A1 1.88656e-05
31 *1440:A *1429:B 0.000101319
32 *1440:A *480:94 7.9642e-06
33 *1444:A2 *1429:B 0.000101715
34 *1453:A1 *1456:A1 5.06989e-05
35 *1453:A2 *1456:A1 0.000143434
36 *1453:A2 *480:75 0.000155749
37 *1456:B1 *1456:A1 8.64421e-05
38 *1458:A2 *1452:A 6.16226e-06
39 *1458:C1 *1456:A1 0
40 *1461:B *480:33 0
41 *1462:A1 *480:41 9.50342e-06
42 *1462:A1 *480:94 0.00015639
43 *1489:A2 *480:33 0.000307132
44 *1490:A *480:33 1.77595e-05
45 *1504:A1 *1504:A2 0.000141397
46 *1504:A1 *480:94 0.000118081
47 *1504:A3 *1504:A2 8.52883e-05
48 *1504:A3 *480:94 0.000294775
49 *1609:A2 *1503:B1 0.000122801
50 *1609:A3 *480:33 0.000189287
51 *1624:A2 *480:33 8.73389e-06
52 *1624:B1 *480:33 0.000210645
53 *1634:S *1634:A1 8.65905e-05
54 *1747:A *1634:A1 4.82919e-05
55 *148:26 *1429:B 8.7152e-06
56 *148:26 *480:94 0.000223143
57 *155:26 *480:33 1.16578e-05
58 *166:71 *480:94 9.54399e-05
59 *166:104 *480:94 0.000134245
60 *170:50 *480:41 3.82239e-05
61 *170:50 *480:56 3.52899e-05
62 *173:162 *480:75 9.50342e-06
63 *173:162 *480:88 0.000129728
64 *179:57 *1456:A1 0
65 *181:10 *1452:A 1.88656e-05
66 *181:53 *1452:A 8.7152e-06
67 *181:53 *480:75 1.23673e-05
68 *185:18 *480:75 0
69 *216:6 *480:33 0.000161307
70 *217:10 *480:33 2.59934e-06
71 *219:6 *480:33 0.000119246
72 *219:16 *480:33 0.00015896
73 *230:6 *1503:B1 4.89295e-05
74 *254:10 *480:33 8.06526e-05
75 *263:92 *1504:A2 2.20014e-05
76 *266:28 *480:41 1.47615e-06
77 *335:6 *480:33 8.43862e-05
78 *382:76 *1634:A1 0
79 *384:43 *480:33 4.77757e-05
80 *384:54 *480:33 0.000282854
81 *387:115 *1634:A1 5.83121e-06
82 *387:125 *1634:A1 0.000143933
83 *461:33 *480:33 3.83194e-05
84 *470:46 *480:75 0
85 *470:46 *480:88 0
*RES
1 *1802:Q *480:6 1.96 
2 *480:6 *1634:A1 12.44 
3 *480:6 *480:33 35.46 
4 *480:33 *480:41 3.4697 
5 *480:41 *1452:A 4.3325 
6 *480:41 *480:56 0.8876 
7 *480:56 *1456:A1 7.1625 
8 *480:56 *480:75 2.5275 
9 *480:75 *1503:B1 4.74 
10 *480:75 *480:88 3.635 
11 *480:88 *480:94 8.9 
12 *480:94 *1506:B1 3.6 
13 *480:94 *1429:B 7.875 
14 *480:88 *1504:A2 3.1 
15 *480:33 *1462:A2 1.6 
*END

*D_NET *481 0.0138058
*CONN
*I *1429:A I *D sky130_fd_sc_hd__nor2_2
*I *1462:B1 I *D sky130_fd_sc_hd__a21oi_1
*I *1453:B1_N I *D sky130_fd_sc_hd__o21bai_1
*I *1455:B1 I *D sky130_fd_sc_hd__o21a_1
*I *1632:A1 I *D sky130_fd_sc_hd__mux2_1
*I *1803:Q O *D sky130_fd_sc_hd__dfrtp_4
*CAP
1 *1429:A 0.000113131
2 *1462:B1 7.85218e-05
3 *1453:B1_N 3.04713e-05
4 *1455:B1 0
5 *1632:A1 0.000575751
6 *1803:Q 0
7 *481:59 0.000210154
8 *481:47 0.000543227
9 *481:41 0.00335125
10 *481:4 0.00352885
11 *1429:A *1424:A 1.10085e-05
12 *1453:B1_N *1455:A1 0.000122699
13 *481:41 *1658:A1 7.84574e-05
14 *481:59 *492:48 5.12803e-05
15 *1429:B *1429:A 0.000115116
16 *1444:A2 *1429:A 1.41095e-05
17 *1444:A2 *481:41 8.57496e-05
18 *1455:A2 *1453:B1_N 2.20014e-05
19 *1456:B1 *1453:B1_N 0.000158536
20 *1461:C *481:47 0.000250242
21 *1462:A1 *481:47 1.86911e-05
22 *1464:B1 *1462:B1 1.32064e-05
23 *1464:B1 *481:59 6.57653e-06
24 *1482:B *481:41 0.000546846
25 *1485:A2 *481:41 9.45099e-07
26 *1486:B *481:41 4.49875e-05
27 *1499:C *481:41 0.000182222
28 *1617:A2 *481:41 0.000129089
29 *1632:S *1632:A1 1.43521e-05
30 *1633:A *1632:A1 0
31 *1789:CLK *1632:A1 3.25733e-05
32 *1789:CLK *481:41 4.89295e-05
33 *1789:D *481:41 2.93678e-05
34 *1789:RESET_B *481:41 2.91561e-06
35 *1803:CLK *1632:A1 0
36 *1885:A *481:41 4.41506e-05
37 *150:56 *481:41 0.000205716
38 *151:6 *481:41 0.000305074
39 *151:10 *481:41 0.000182219
40 *151:26 *481:41 2.49909e-05
41 *155:16 *481:41 4.99339e-05
42 *155:16 *481:47 7.56461e-05
43 *155:18 *481:47 0.000357899
44 *155:26 *1462:B1 1.34503e-05
45 *155:26 *481:47 0.000156614
46 *156:12 *481:41 4.77769e-05
47 *170:50 *481:59 0.000209186
48 *181:10 *481:59 0.000100134
49 *208:14 *481:41 0.000261695
50 *210:8 *481:41 8.28018e-06
51 *225:26 *481:41 9.48343e-05
52 *266:28 *481:47 0
53 *266:28 *481:59 0
54 *303:20 *481:41 0.000107653
55 *303:20 *481:47 0.000261355
56 *303:20 *481:59 1.89738e-05
57 *331:8 *481:41 8.6371e-05
58 *384:12 *1632:A1 0
59 *385:51 *481:41 0.000328129
60 *480:33 *1462:B1 7.60965e-05
61 *480:41 *481:47 1.88656e-05
62 *480:41 *481:59 0.000359541
*RES
1 *1803:Q *481:4 1.6 
2 *481:4 *1632:A1 12.44 
3 *481:4 *481:41 35.2165 
4 *481:41 *481:47 8.565 
5 *481:47 *481:59 5.3024 
6 *481:59 *1455:B1 1.6 
7 *481:59 *1453:B1_N 3.085 
8 *481:47 *1462:B1 5.085 
9 *481:41 *1429:A 5.355 
*END

*D_NET *482 0.0140317
*CONN
*I *1630:A1 I *D sky130_fd_sc_hd__mux2_1
*I *1467:B1 I *D sky130_fd_sc_hd__a21oi_2
*I *1468:A2 I *D sky130_fd_sc_hd__a31o_1
*I *1475:B I *D sky130_fd_sc_hd__and3_1
*I *1471:A I *D sky130_fd_sc_hd__or2b_1
*I *1473:A1 I *D sky130_fd_sc_hd__o21a_2
*I *1441:A_N I *D sky130_fd_sc_hd__nand3b_1
*I *1448:B1 I *D sky130_fd_sc_hd__a21o_1
*I *1430:A_N I *D sky130_fd_sc_hd__nand4b_4
*I *1444:B1 I *D sky130_fd_sc_hd__o21ai_1
*I *1804:Q O *D sky130_fd_sc_hd__dfrtp_4
*CAP
1 *1630:A1 0
2 *1467:B1 1.55643e-05
3 *1468:A2 3.33102e-05
4 *1475:B 0
5 *1471:A 0
6 *1473:A1 0.00017292
7 *1441:A_N 0
8 *1448:B1 4.83157e-05
9 *1430:A_N 0.000549036
10 *1444:B1 9.91585e-05
11 *1804:Q 0.000284035
12 *482:104 0.000347707
13 *482:91 0.000249052
14 *482:52 0.000694468
15 *482:50 0.000263696
16 *482:48 0.000443285
17 *482:44 0.000365661
18 *482:42 0.000475163
19 *482:38 0.00194916
20 *482:14 0.00194152
21 *1473:A1 *483:61 0.000288861
22 *482:38 *1858:A 1.9e-05
23 *482:38 *494:23 0.000108828
24 *482:38 *494:32 7.23533e-05
25 *1440:A *1430:A_N 0.000118081
26 *1440:B *1430:A_N 1.1542e-05
27 *1441:B *482:91 7.9294e-05
28 *1441:B *482:104 4.55864e-06
29 *1447:A *1430:A_N 4.7003e-05
30 *1448:A1 *1448:B1 4.00541e-06
31 *1448:A2 *1448:B1 7.03053e-05
32 *1449:A2 *1444:B1 0.000175213
33 *1449:A2 *482:50 0.00012904
34 *1449:A2 *482:52 0.000107006
35 *1449:B1 *482:50 0.000117832
36 *1467:A1 *482:44 6.16161e-06
37 *1468:A1 *1468:A2 8.7152e-06
38 *1468:A3 *1468:A2 4.84768e-05
39 *1476:A2 *1467:B1 7.79767e-06
40 *1476:A2 *482:38 4.21973e-05
41 *1476:A2 *482:42 0.000316067
42 *1476:A2 *482:44 0.00015817
43 *1478:B1 *1468:A2 0
44 *1478:B1 *482:104 3.11483e-05
45 *1589:B1 *482:38 0.0001857
46 *1630:A0 *482:14 6.97202e-05
47 *1630:A0 *482:38 1.47256e-05
48 *1630:S *482:14 3.1226e-05
49 *1630:S *482:38 0.000416246
50 *1653:A1 *482:14 0.00033914
51 *1703:B1 *482:38 0.000344652
52 *155:12 *1430:A_N 1.63826e-05
53 *155:64 *1430:A_N 8.38297e-06
54 *156:12 *1444:B1 1.72577e-05
55 *172:48 *482:44 7.49952e-07
56 *172:48 *482:50 0.000181376
57 *172:48 *482:91 7.33703e-05
58 *172:68 *1444:B1 9.41223e-05
59 *172:68 *482:50 0.000102134
60 *172:68 *482:52 6.03575e-05
61 *201:6 *482:104 8.18626e-05
62 *203:10 *482:38 0.000162311
63 *205:18 *1473:A1 0.000155608
64 *229:16 *1448:B1 6.49509e-05
65 *266:119 *482:50 0.000245206
66 *266:119 *482:91 0.000214758
67 *266:119 *482:104 6.46607e-05
68 *303:20 *1473:A1 0.000288173
69 *303:20 *482:50 0
70 *303:115 *1473:A1 6.62684e-05
71 *361:36 *482:38 0.000114492
72 *361:36 *482:44 6.54287e-06
73 *361:36 *482:48 0.0002044
74 *381:110 *482:38 0.000264077
75 *381:116 *482:38 6.13327e-05
76 *388:163 *482:38 7.59822e-05
77 *473:25 *1473:A1 4.82863e-05
78 *473:25 *482:104 3.57349e-05
79 *479:41 *1430:A_N 1.77945e-05
*RES
1 *1804:Q *482:14 11.72 
2 *482:14 *482:38 31.09 
3 *482:38 *482:42 3.915 
4 *482:42 *482:44 2.175 
5 *482:44 *482:48 4.52 
6 *482:48 *482:50 5.715 
7 *482:50 *482:52 1.38 
8 *482:52 *1444:B1 6.36 
9 *482:52 *1430:A_N 10.185 
10 *482:50 *1448:B1 5.13 
11 *482:48 *482:91 2.655 
12 *482:91 *1441:A_N 3.6 
13 *482:91 *482:104 4.7 
14 *482:104 *1473:A1 10.955 
15 *482:104 *1471:A 1.6 
16 *482:44 *1475:B 1.6 
17 *482:42 *1468:A2 6.215 
18 *482:38 *1467:B1 1.96 
19 *482:14 *1630:A1 1.6 
*END

*D_NET *483 0.0133914
*CONN
*I *1628:A1 I *D sky130_fd_sc_hd__mux2_1
*I *1432:C I *D sky130_fd_sc_hd__and3_2
*I *1521:A1 I *D sky130_fd_sc_hd__a311o_1
*I *1431:B1 I *D sky130_fd_sc_hd__a21oi_2
*I *1441:C I *D sky130_fd_sc_hd__nand3b_1
*I *1471:B_N I *D sky130_fd_sc_hd__or2b_1
*I *1469:A I *D sky130_fd_sc_hd__inv_2
*I *1546:A1 I *D sky130_fd_sc_hd__a31o_1
*I *1805:Q O *D sky130_fd_sc_hd__dfrtp_4
*CAP
1 *1628:A1 0
2 *1432:C 0
3 *1521:A1 0.000297864
4 *1431:B1 0
5 *1441:C 0.000170383
6 *1471:B_N 3.65374e-05
7 *1469:A 0.000126305
8 *1546:A1 2.76947e-05
9 *1805:Q 0.000488677
10 *483:76 0.00020692
11 *483:61 0.000398229
12 *483:53 0.000437538
13 *483:49 0.000463479
14 *483:40 8.17745e-05
15 *483:36 0.00262828
16 *483:12 0.00306287
17 *1432:A *1546:A1 8.49205e-05
18 *1432:A *483:40 4.82919e-05
19 *1432:B *1546:A1 2.21606e-05
20 *1432:B *483:40 4.29198e-05
21 *1472:B2 *1469:A 0.000143886
22 *1473:A1 *483:61 0.000288861
23 *1473:B1 *483:53 2.68037e-05
24 *1474:A1 *1469:A 0
25 *1521:A2 *1521:A1 1.16578e-05
26 *1521:C1 *1521:A1 6.7772e-05
27 *1525:A2 *1521:A1 8.34281e-06
28 *1525:B1 *1521:A1 5.83373e-05
29 *1525:B1 *483:53 8.06749e-05
30 *1525:B2 *1521:A1 0.000138819
31 *1525:B2 *483:53 5.04431e-05
32 *1525:C1 *1521:A1 1.91597e-05
33 *1526:B1 *483:36 0.000249156
34 *1536:A1 *483:36 2.85364e-05
35 *1538:A3 *483:36 1.01851e-05
36 *1538:B1 *483:36 8.43022e-05
37 *1539:B *483:36 4.66108e-05
38 *1546:A3 *483:40 0
39 *1546:B1 *1546:A1 1.63138e-05
40 *1546:B1 *483:53 0.000114492
41 *1547:A2 *1521:A1 1.31735e-05
42 *1582:A *483:61 8.53011e-05
43 *1628:S *483:12 2.28636e-05
44 *1628:S *483:36 0.000275553
45 *1629:A *483:12 0
46 *1629:A *483:36 4.99619e-05
47 *1646:A *483:61 7.38779e-05
48 *1646:C *483:36 0
49 *1661:A1 *1521:A1 4.88568e-05
50 *1895:A *483:36 2.32692e-05
51 *158:19 *483:53 4.7167e-05
52 *159:8 *483:36 8.57024e-05
53 *159:8 *483:40 3.51884e-05
54 *160:8 *483:53 0.000195381
55 *161:52 *483:61 4.02438e-05
56 *161:66 *483:36 3.22827e-05
57 *163:111 *483:61 0.000231815
58 *173:91 *1469:A 0.00011381
59 *173:91 *483:61 0.000199963
60 *196:8 *1469:A 3.00381e-05
61 *201:6 *1441:C 0.000125238
62 *201:6 *1471:B_N 8.49205e-05
63 *246:33 *1521:A1 4.99619e-05
64 *252:25 *483:36 9.14245e-05
65 *266:155 *483:36 4.32873e-05
66 *303:10 *483:61 5.75222e-05
67 *303:20 *1469:A 5.98143e-05
68 *303:20 *483:61 3.89826e-05
69 *390:42 *483:36 0.000464932
70 *390:53 *483:36 0.000242345
71 *420:10 *483:36 2.86975e-05
72 *473:25 *483:61 0.000157595
73 *479:24 *483:36 0.000273008
*RES
1 *1805:Q *483:12 8.29 
2 *483:12 *483:36 42.295 
3 *483:36 *483:40 1.5 
4 *483:40 *1546:A1 2.395 
5 *483:40 *483:49 2 
6 *483:49 *483:53 6.185 
7 *483:53 *483:61 10.76 
8 *483:61 *1469:A 6.735 
9 *483:61 *483:76 2 
10 *483:76 *1471:B_N 2.395 
11 *483:76 *1441:C 4.495 
12 *483:53 *1431:B1 1.6 
13 *483:49 *1521:A1 12.325 
14 *483:36 *1432:C 1.6 
15 *483:12 *1628:A1 1.6 
*END

*D_NET *484 0.00356691
*CONN
*I *1423:A I *D sky130_fd_sc_hd__buf_4
*I *1443:A I *D sky130_fd_sc_hd__inv_2
*I *1420:B I *D sky130_fd_sc_hd__and2b_1
*I *1790:Q O *D sky130_fd_sc_hd__dfrtp_1
*CAP
1 *1423:A 2.25496e-05
2 *1443:A 6.0371e-05
3 *1420:B 0.000212552
4 *1790:Q 0.000164477
5 *484:10 0.000885499
6 *484:8 0.000799603
7 *1420:B *492:68 7.33728e-05
8 *1427:B *1420:B 0
9 *1445:A *1423:A 0.000123225
10 *1497:B1 *1420:B 0
11 *1497:B1 *484:10 0
12 *1498:A *484:10 0
13 *148:16 *1420:B 0
14 *150:8 *1423:A 0.000123225
15 *151:59 *484:8 1.94892e-05
16 *151:59 *484:10 0.000192806
17 *151:74 *484:8 8.61335e-05
18 *172:21 *484:8 0
19 *172:21 *484:10 0
20 *173:20 *484:8 0.000114492
21 *254:33 *1443:A 2.68464e-05
22 *386:20 *484:10 0.000250538
23 *469:45 *484:10 0.000288934
24 *480:33 *1420:B 0.000122797
*RES
1 *1790:Q *484:8 7.02 
2 *484:8 *484:10 11.835 
3 *484:10 *1420:B 7.14 
4 *484:10 *1443:A 4.665 
5 *484:8 *1423:A 4.74 
*END

*D_NET *485 0.00710163
*CONN
*I *1693:A0 I *D sky130_fd_sc_hd__mux2_1
*I *1658:B2 I *D sky130_fd_sc_hd__a22o_1
*I *1660:A1 I *D sky130_fd_sc_hd__a22o_1
*I *1791:Q O *D sky130_fd_sc_hd__dfrtp_1
*CAP
1 *1693:A0 0.00037928
2 *1658:B2 1.40069e-05
3 *1660:A1 0.000227961
4 *1791:Q 7.35079e-05
5 *485:22 0.00145034
6 *485:8 0.00166116
7 *1436:A *1658:B2 8.52883e-05
8 *1436:A *485:22 0.000528354
9 *1581:A2 *485:22 0.000132827
10 *1585:A1 *485:22 8.60492e-05
11 *1642:A0 *1693:A0 0.000288869
12 *1642:A0 *485:22 0.00017765
13 *1660:B1 *1660:A1 3.65014e-05
14 *1660:B2 *1660:A1 4.89295e-05
15 *1661:B1 *1660:A1 1.26623e-05
16 *1693:A1 *1693:A0 2.86975e-05
17 *1791:D *485:8 2.76356e-05
18 *1814:D *1693:A0 3.64998e-06
19 *153:41 *485:22 0.000131525
20 *160:35 *1660:A1 1.87913e-05
21 *160:39 *485:22 0.000166626
22 *161:20 *485:22 6.14605e-05
23 *163:22 *1660:A1 0
24 *279:6 *1658:B2 7.44125e-05
25 *279:6 *485:22 0.000159165
26 *279:8 *485:22 0.000489681
27 *303:133 *1660:A1 0.000157993
28 *383:12 *1693:A0 2.83135e-05
29 *383:12 *485:22 0.000100863
30 *383:25 *485:22 0.000139772
31 *385:26 *1693:A0 3.48755e-05
32 *385:41 *1693:A0 0.000274785
*RES
1 *1791:Q *485:8 4.395 
2 *485:8 *485:22 27.24 
3 *485:22 *1660:A1 9.845 
4 *485:22 *1658:B2 2.395 
5 *485:8 *1693:A0 11.73 
*END

*D_NET *486 0.0156656
*CONN
*I *1658:A1 I *D sky130_fd_sc_hd__a22o_1
*I *1691:A0 I *D sky130_fd_sc_hd__mux2_1
*I *1656:B2 I *D sky130_fd_sc_hd__a22o_1
*I *1792:Q O *D sky130_fd_sc_hd__dfrtp_1
*CAP
1 *1658:A1 0.00158002
2 *1691:A0 0.00190584
3 *1656:B2 4.90343e-05
4 *1792:Q 0.000359433
5 *486:35 0.0047246
6 *486:18 0.0016472
7 *1656:B2 *487:43 0
8 *486:18 *1689:A0 0.000134864
9 *486:18 *487:43 0.000133935
10 *486:35 *487:43 0
11 *1481:A2 *1658:A1 2.38054e-05
12 *1485:A2 *1658:A1 8.74345e-06
13 *1486:B *1658:A1 0.00013375
14 *1490:A *1658:A1 0.000130664
15 *1499:A *1658:A1 0
16 *1638:A1 *1691:A0 2.00725e-05
17 *1638:S *1691:A0 2.68526e-05
18 *1639:A *1691:A0 0.000160338
19 *1640:S *486:35 0
20 *1641:A *486:35 0.000451286
21 *1649:A1 *486:35 0
22 *1656:A2 *1656:B2 0
23 *1656:A2 *486:18 4.82863e-05
24 *1656:A2 *486:35 0
25 *1657:A1 *486:18 9.34773e-06
26 *1657:B1 *486:18 0.000389496
27 *1658:B1 *1658:A1 0.000168198
28 *1660:B2 *1658:A1 0.000698878
29 *1678:A *486:18 0
30 *1691:A1 *1691:A0 4.81824e-05
31 *1691:S *1691:A0 1.72572e-05
32 *1740:A *486:18 1.56296e-05
33 *1742:A *1658:A1 0.000520523
34 *1744:A *486:35 0.000311288
35 *1782:CLK *486:18 0
36 *1782:D *486:18 7.00889e-06
37 *1790:D *1658:A1 3.60738e-06
38 *1792:CLK *486:35 0
39 *1792:D *486:35 5.90469e-05
40 *1796:D *486:35 9.05592e-05
41 *1800:D *1691:A0 3.44774e-05
42 *1800:RESET_B *1691:A0 7.01359e-05
43 *1806:CLK *1691:A0 0.000107253
44 *1806:D *1691:A0 0.000322865
45 *1832:A *1691:A0 2.88357e-05
46 *1834:A *486:35 0
47 *152:29 *1658:A1 0.000132961
48 *153:12 *1658:A1 8.71079e-05
49 *166:10 *1658:A1 2.87867e-05
50 *166:36 *1658:A1 1.23047e-05
51 *223:14 *1658:A1 0.000194907
52 *225:26 *1658:A1 4.61701e-06
53 *229:16 *1658:A1 0
54 *238:10 *1658:A1 0
55 *263:12 *1658:A1 0
56 *266:28 *486:35 0
57 *277:17 *1658:A1 0.000155862
58 *303:47 *486:35 1.50669e-05
59 *339:26 *486:35 8.73389e-06
60 *383:156 *1658:A1 9.07407e-05
61 *387:29 *1691:A0 6.8308e-05
62 *477:12 *1658:A1 0.000252282
63 *477:12 *1691:A0 9.41579e-05
64 *478:23 *1658:A1 0
65 *478:36 *1658:A1 0
66 *481:41 *1658:A1 7.84574e-05
*RES
1 *1792:Q *486:18 14.8 
2 *486:18 *1656:B2 4.215 
3 *486:18 *486:35 23.35 
4 *486:35 *1691:A0 28.8 
5 *486:35 *1658:A1 37.29 
*END

*D_NET *487 0.0123115
*CONN
*I *1656:A1 I *D sky130_fd_sc_hd__a22o_1
*I *1689:A0 I *D sky130_fd_sc_hd__mux2_1
*I *1654:B2 I *D sky130_fd_sc_hd__a22o_1
*I *1793:Q O *D sky130_fd_sc_hd__dfrtp_1
*CAP
1 *1656:A1 0
2 *1689:A0 0.00239887
3 *1654:B2 0.000278742
4 *1793:Q 0
5 *487:43 0.00324916
6 *487:4 0.00112903
7 *1653:A1 *487:43 4.11718e-05
8 *1655:B1 *1654:B2 6.61752e-05
9 *1656:A2 *1689:A0 4.99619e-05
10 *1656:B1 *1689:A0 3.09774e-05
11 *1656:B2 *487:43 0
12 *1684:A *1689:A0 0.000172834
13 *1688:A *487:43 4.89295e-05
14 *1690:A *1689:A0 0.000122331
15 *1722:A *1689:A0 0.000166903
16 *1777:D *487:43 0.0001595
17 *1777:RESET_B *487:43 4.66108e-05
18 *1782:D *1689:A0 0.000145184
19 *1793:RESET_B *1654:B2 2.45989e-05
20 *1834:A *487:43 2.67022e-05
21 *1881:A *1689:A0 5.16418e-05
22 *1888:A *487:43 1.02346e-05
23 *266:79 *1654:B2 8.41014e-05
24 *266:79 *487:43 0.000124895
25 *303:63 *487:43 8.34281e-06
26 *303:73 *487:43 1.91597e-05
27 *314:65 *1654:B2 8.30109e-05
28 *314:73 *1654:B2 2.85364e-05
29 *314:73 *1689:A0 0
30 *314:73 *487:43 0.000119964
31 *314:86 *1689:A0 0.000163199
32 *314:86 *487:43 1.61831e-05
33 *359:22 *1689:A0 0.000477622
34 *359:32 *1689:A0 1.92979e-05
35 *382:76 *1654:B2 3.00381e-05
36 *382:117 *1689:A0 0.0017428
37 *383:86 *487:43 0.000345095
38 *383:99 *487:43 0.000337391
39 *388:80 *1689:A0 0
40 *388:94 *1689:A0 0
41 *388:105 *1689:A0 0
42 *405:10 *1689:A0 0.000136877
43 *412:8 *487:43 8.65961e-05
44 *486:18 *1689:A0 0.000134864
45 *486:18 *487:43 0.000133935
46 *486:35 *487:43 0
*RES
1 *1793:Q *487:4 1.6 
2 *487:4 *1654:B2 9.95 
3 *487:4 *487:43 22.18 
4 *487:43 *1689:A0 45.425 
5 *487:43 *1656:A1 1.6 
*END

*D_NET *488 0.00355477
*CONN
*I *1687:A0 I *D sky130_fd_sc_hd__mux2_1
*I *1652:B2 I *D sky130_fd_sc_hd__a22o_1
*I *1654:A1 I *D sky130_fd_sc_hd__a22o_1
*I *1794:Q O *D sky130_fd_sc_hd__dfrtp_1
*CAP
1 *1687:A0 0.000154182
2 *1652:B2 8.63052e-05
3 *1654:A1 0.000156739
4 *1794:Q 0
5 *488:16 0.000563197
6 *488:4 0.000474334
7 *1652:B2 *1650:A1 4.77807e-05
8 *1654:A2 *1652:B2 0.000123696
9 *1654:A2 *1654:A1 0.000345661
10 *1655:B1 *1654:A1 8.40213e-05
11 *1677:A0 *1687:A0 9.49063e-05
12 *1677:A0 *488:16 0.00046521
13 *1687:A1 *1687:A0 9.33998e-05
14 *1687:S *1687:A0 1.44809e-05
15 *1688:A *1687:A0 0
16 *1777:CLK *1654:A1 0
17 *1794:D *488:16 8.7152e-06
18 *1794:RESET_B *1687:A0 0
19 *259:141 *1652:B2 8.33066e-06
20 *303:63 *1687:A0 0.000150476
21 *303:63 *488:16 0.000161467
22 *314:48 *1652:B2 4.28112e-06
23 *314:52 *1652:B2 4.77807e-05
24 *359:32 *1687:A0 4.36573e-06
25 *382:76 *1654:A1 3.72916e-05
26 *383:86 *1654:A1 0.000244575
27 *383:86 *488:16 4.66108e-05
28 *387:29 *488:16 5.00404e-05
29 *387:46 *488:16 7.21895e-05
30 *387:52 *488:16 1.47347e-05
*RES
1 *1794:Q *488:4 1.6 
2 *488:4 *488:16 14.07 
3 *488:16 *1654:A1 8.58 
4 *488:16 *1652:B2 5.685 
5 *488:4 *1687:A0 9.335 
*END

*D_NET *489 0.0119849
*CONN
*I *1652:A1 I *D sky130_fd_sc_hd__a22o_1
*I *1650:B2 I *D sky130_fd_sc_hd__a22o_1
*I *1685:A0 I *D sky130_fd_sc_hd__mux2_1
*I *1795:Q O *D sky130_fd_sc_hd__dfrtp_1
*CAP
1 *1652:A1 0.000240036
2 *1650:B2 0
3 *1685:A0 0.00100939
4 *1795:Q 4.62557e-05
5 *489:31 0.000293626
6 *489:18 0.0026366
7 *489:10 0.00172706
8 *1652:A1 *1650:A1 2.21074e-05
9 *1634:A1 *489:18 0.000185405
10 *1650:B1 *1652:A1 0.000328214
11 *1651:B1 *1652:A1 2.01829e-05
12 *1651:B1 *489:10 7.03219e-05
13 *1651:B1 *489:18 2.49909e-05
14 *1651:B1 *489:31 6.23576e-05
15 *1652:B1 *1652:A1 2.57814e-05
16 *1674:B2 *1685:A0 4.4073e-05
17 *1694:A *1685:A0 4.05358e-05
18 *1717:A *1685:A0 0.00194717
19 *1717:A *489:18 0.00106216
20 *1775:D *489:18 0
21 *1813:CLK *1685:A0 0
22 *1894:A *1685:A0 0.000265496
23 *163:61 *1652:A1 0.000403388
24 *314:52 *1652:A1 0.00021486
25 *381:14 *1685:A0 0
26 *382:32 *1685:A0 0.000364034
27 *382:53 *1685:A0 0.000603229
28 *382:76 *1685:A0 0
29 *382:76 *489:18 0
30 *383:48 *489:10 0.000112589
31 *389:73 *1685:A0 0
32 *389:98 *1685:A0 0.000116568
33 *403:12 *1685:A0 0.00011852
*RES
1 *1795:Q *489:10 6.98 
2 *489:10 *489:18 31.9325 
3 *489:18 *1685:A0 34.7175 
4 *489:10 *489:31 1.14 
5 *489:31 *1650:B2 1.6 
6 *489:31 *1652:A1 9.01 
*END

*D_NET *490 0.00945419
*CONN
*I *1683:A0 I *D sky130_fd_sc_hd__mux2_1
*I *1648:B2 I *D sky130_fd_sc_hd__a22o_1
*I *1650:A1 I *D sky130_fd_sc_hd__a22o_1
*I *1796:Q O *D sky130_fd_sc_hd__dfrtp_1
*CAP
1 *1683:A0 0.00171118
2 *1648:B2 0.000100882
3 *1650:A1 0.00151482
4 *1796:Q 0
5 *490:10 0.00173702
6 *490:4 0.0018325
7 *1640:A0 *1648:B2 0.000150105
8 *1640:A0 *1650:A1 9.42924e-05
9 *1648:A2 *1648:B2 1.2383e-05
10 *1648:B1 *1648:B2 8.64599e-05
11 *1650:A2 *1650:A1 0.000306848
12 *1650:B1 *1650:A1 2.21074e-05
13 *1651:B1 *1650:A1 0.00012398
14 *1652:A1 *1650:A1 2.21074e-05
15 *1652:A2 *1650:A1 4.89395e-05
16 *1652:B1 *1650:A1 4.89395e-05
17 *1652:B2 *1650:A1 4.77807e-05
18 *1653:B1 *1650:A1 8.23457e-05
19 *1684:A *1683:A0 1.01551e-05
20 *1792:CLK *1650:A1 9.32439e-05
21 *1809:D *1683:A0 3.54721e-05
22 *1833:A *1683:A0 3.9002e-05
23 *163:61 *1650:A1 0.000249052
24 *163:61 *1683:A0 8.35118e-05
25 *163:61 *490:10 0.000191887
26 *259:133 *1648:B2 2.87059e-05
27 *303:20 *1648:B2 3.77365e-05
28 *303:20 *1650:A1 3.57981e-05
29 *314:52 *1650:A1 2.87075e-05
30 *388:18 *1683:A0 9.05592e-05
31 *388:41 *1650:A1 0.000162513
32 *388:41 *1683:A0 3.63576e-05
33 *388:41 *490:10 0.000191887
34 *388:65 *1683:A0 1.42674e-05
35 *469:45 *1683:A0 3.91427e-06
36 *471:12 *1683:A0 0.0001076
37 *471:18 *1683:A0 7.11301e-05
*RES
1 *1796:Q *490:4 1.6 
2 *490:4 *490:10 4.625 
3 *490:10 *1650:A1 27.03 
4 *490:10 *1648:B2 6.39 
5 *490:4 *1683:A0 26.09 
*END

*D_NET *491 0.017828
*CONN
*I *1647:A1 I *D sky130_fd_sc_hd__a221o_1
*I *1681:A0 I *D sky130_fd_sc_hd__mux2_1
*I *1648:A1 I *D sky130_fd_sc_hd__a22o_1
*I *1797:Q O *D sky130_fd_sc_hd__dfrtp_2
*CAP
1 *1647:A1 0
2 *1681:A0 0.0017647
3 *1648:A1 0.0030693
4 *1797:Q 0.000100938
5 *491:43 0.00209414
6 *491:8 0.00349968
7 *1512:B *1681:A0 0.000158629
8 *1513:A *1681:A0 0.000172771
9 *1513:B *1681:A0 0.000339456
10 *1570:A1 *1681:A0 0
11 *1571:A *1681:A0 2.03539e-05
12 *1576:A1 *1681:A0 7.23602e-05
13 *1576:B2 *1681:A0 5.20968e-05
14 *1586:A1 *1681:A0 0
15 *1586:A2 *491:43 0
16 *1586:B1 *1681:A0 8.26614e-05
17 *1586:B2 *1681:A0 9.37731e-05
18 *1647:A2 *491:43 2.87433e-05
19 *1647:B2 *1681:A0 2.32068e-05
20 *1647:C1 *1648:A1 0.000525188
21 *1660:B2 *1648:A1 3.86814e-05
22 *1660:B2 *491:8 0.000151224
23 *1681:A1 *1681:A0 0.000120186
24 *1742:A *491:43 0.000311945
25 *1790:CLK *1681:A0 5.40221e-05
26 *1797:D *1681:A0 8.53113e-06
27 *1821:A *1648:A1 0.00186551
28 *1822:A *1648:A1 1.97932e-05
29 *1831:A *1681:A0 0
30 *1891:A *1681:A0 0
31 *163:22 *1681:A0 3.82728e-05
32 *254:82 *1681:A0 0.000420443
33 *263:43 *1681:A0 0
34 *263:43 *491:43 4.87465e-06
35 *278:61 *1681:A0 0.000592102
36 *303:20 *1648:A1 2.60612e-05
37 *314:10 *491:43 0.000202256
38 *359:32 *1648:A1 0.000291807
39 *386:20 *1648:A1 0.000227008
40 *386:50 *1648:A1 0.000302561
41 *388:14 *1648:A1 1.77198e-05
42 *462:19 *1681:A0 0.000125895
43 *462:23 *1681:A0 2.88436e-05
44 *473:8 *1681:A0 0.000523332
45 *473:8 *491:43 2.0722e-05
46 *475:8 *1681:A0 0
47 *475:14 *1681:A0 0
48 *475:18 *1681:A0 0.000338226
*RES
1 *1797:Q *491:8 5.49 
2 *491:8 *1648:A1 14.1961 
3 *491:8 *491:43 7.985 
4 *491:43 *1681:A0 46.71 
5 *491:43 *1647:A1 1.6 
*END

*D_NET *492 0.0124866
*CONN
*I *1424:A I *D sky130_fd_sc_hd__inv_2
*I *1458:A1 I *D sky130_fd_sc_hd__o211a_1
*I *1455:A1 I *D sky130_fd_sc_hd__o21a_1
*I *1463:A2 I *D sky130_fd_sc_hd__o21ai_1
*I *1527:B I *D sky130_fd_sc_hd__nand2_4
*I *1489:A1 I *D sky130_fd_sc_hd__o211ai_1
*I *1420:A_N I *D sky130_fd_sc_hd__and2b_1
*I *1444:A1 I *D sky130_fd_sc_hd__o21ai_1
*I *1696:B2 I *D sky130_fd_sc_hd__a22o_1
*I *1772:Q O *D sky130_fd_sc_hd__dfrtp_4
*CAP
1 *1424:A 0.000432894
2 *1458:A1 0.000347846
3 *1455:A1 3.52152e-05
4 *1463:A2 0
5 *1527:B 0
6 *1489:A1 8.81103e-05
7 *1420:A_N 0
8 *1444:A1 8.24952e-05
9 *1696:B2 2.11135e-05
10 *1772:Q 0.00076933
11 *492:68 0.000242327
12 *492:66 0.000479625
13 *492:58 0.00044919
14 *492:48 0.000242621
15 *492:44 0.000712762
16 *492:42 0.000797755
17 *492:29 0.00126704
18 *492:14 0.00189142
19 *1420:B *492:68 7.33728e-05
20 *1429:A *1424:A 1.10085e-05
21 *1429:B *1424:A 4.58691e-06
22 *1429:B *1444:A1 4.77807e-05
23 *1429:B *492:42 2.14363e-05
24 *1429:B *492:44 1.47211e-05
25 *1440:A *492:42 0
26 *1444:A2 *1424:A 9.17884e-05
27 *1444:A2 *1444:A1 4.77807e-05
28 *1453:B1_N *1455:A1 0.000122699
29 *1454:A *1458:A1 1.17409e-05
30 *1454:B *1458:A1 3.64998e-06
31 *1455:A2 *1455:A1 4.89295e-05
32 *1456:A1 *1458:A1 3.82741e-05
33 *1456:B1 *1455:A1 3.7712e-05
34 *1458:C1 *1458:A1 0
35 *1461:A *492:44 1.74476e-05
36 *1463:B1 *1455:A1 0.000113237
37 *1463:B1 *492:58 0.000278448
38 *1464:A1 *492:48 3.27144e-05
39 *1464:A2 *1455:A1 5.83121e-06
40 *1464:A2 *492:58 4.92921e-05
41 *1464:B1 *492:58 5.97301e-05
42 *1464:B2 *492:58 4.99619e-05
43 *1489:A2 *1489:A1 0.000195476
44 *1489:A2 *492:68 6.63617e-05
45 *1505:A1 *492:44 6.88211e-05
46 *1507:C *1424:A 1.19928e-05
47 *1601:A2 *492:29 0.000128166
48 *1609:A3 *1458:A1 3.52139e-06
49 *1696:A2 *492:14 0.000119251
50 *147:14 *492:66 0
51 *148:16 *492:66 0.000112631
52 *148:26 *492:44 0.000398356
53 *148:35 *1424:A 0.000411666
54 *151:6 *1424:A 2.88357e-05
55 *166:73 *492:44 3.69421e-05
56 *170:31 *492:66 0.000238919
57 *170:50 *492:58 2.06929e-05
58 *170:50 *492:66 3.83041e-05
59 *172:68 *492:42 0.000122537
60 *172:68 *492:44 0.00010526
61 *179:14 *1458:A1 0.000122699
62 *179:14 *492:44 0.000117279
63 *179:40 *1458:A1 0.000218592
64 *181:10 *492:44 5.69898e-06
65 *181:10 *492:48 9.77152e-06
66 *181:23 *1455:A1 1.49157e-05
67 *216:6 *1489:A1 0.000114433
68 *228:39 *492:29 0.000141759
69 *228:43 *492:29 0.000374917
70 *228:56 *492:29 8.35118e-05
71 *259:129 *492:48 0
72 *266:28 *492:66 0
73 *480:33 *1489:A1 2.30292e-05
74 *480:33 *492:68 4.02319e-05
75 *480:75 *1458:A1 1.88656e-05
76 *481:59 *492:48 5.12803e-05
*RES
1 *1772:Q *492:14 16.67 
2 *492:14 *1696:B2 1.96 
3 *492:14 *492:29 17.745 
4 *492:29 *1444:A1 3.085 
5 *492:29 *492:42 3.9425 
6 *492:42 *492:44 7.3875 
7 *492:44 *492:48 3.635 
8 *492:48 *492:58 4.14 
9 *492:58 *492:66 10.39 
10 *492:66 *492:68 3.21 
11 *492:68 *1420:A_N 1.6 
12 *492:68 *1489:A1 4.495 
13 *492:66 *1527:B 1.6 
14 *492:58 *1463:A2 1.6 
15 *492:48 *1455:A1 3.43 
16 *492:44 *1458:A1 12.115 
17 *492:42 *1424:A 13.9975 
*END

*D_NET *493 0.0017227
*CONN
*I *1663:A I *D sky130_fd_sc_hd__nand2_4
*I *1529:A I *D sky130_fd_sc_hd__inv_2
*I *1435:A I *D sky130_fd_sc_hd__clkbuf_4
*I *1771:Q O *D sky130_fd_sc_hd__dfrtp_2
*CAP
1 *1663:A 2.8828e-05
2 *1529:A 9.52223e-05
3 *1435:A 3.57533e-05
4 *1771:Q 4.92578e-05
5 *493:14 0.000414332
6 *493:12 0.000361442
7 *1532:B1 *1435:A 0.000123225
8 *1532:B1 *1529:A 0.000122968
9 *1532:B1 *493:14 8.49205e-05
10 *1636:A0 *493:12 7.4027e-05
11 *1663:B *1663:A 0
12 *1663:B *493:14 4.66742e-05
13 *162:8 *1435:A 3.45679e-05
14 *163:124 *493:12 4.05358e-05
15 *259:102 *1529:A 8.39664e-05
16 *381:73 *493:14 1.34594e-05
17 *420:16 *1663:A 4.82919e-05
18 *420:16 *493:14 6.52265e-05
*RES
1 *1771:Q *493:12 6.83 
2 *493:12 *493:14 4.59 
3 *493:14 *1435:A 2.74 
4 *493:14 *1529:A 8.255 
5 *493:12 *1663:A 2.41 
*END

*D_NET *494 0.00323462
*CONN
*I *1662:D_N I *D sky130_fd_sc_hd__nor4b_1
*I *1665:D_N I *D sky130_fd_sc_hd__or4b_2
*I *1697:C I *D sky130_fd_sc_hd__or4_1
*I *1700:A I *D sky130_fd_sc_hd__or2_1
*I *1852:A I *D sky130_fd_sc_hd__dlygate4sd3_1
*I *1858:A I *D sky130_fd_sc_hd__dlygate4sd3_1
*I *1767:Q O *D sky130_fd_sc_hd__dfrtp_1
*CAP
1 *1662:D_N 0.000220069
2 *1665:D_N 3.24825e-05
3 *1697:C 0.000101518
4 *1700:A 3.14706e-05
5 *1852:A 0
6 *1858:A 0.000175632
7 *1767:Q 3.70101e-05
8 *494:47 0.000153066
9 *494:43 0.000394345
10 *494:32 0.000277167
11 *494:23 0.000149592
12 *494:8 0.000271748
13 *1662:D_N *495:38 0
14 *1665:D_N *1697:A 5.12823e-05
15 *1697:C *1697:A 7.41575e-05
16 *1700:B *1700:A 4.82919e-05
17 *1705:A1 *1858:A 7.27003e-05
18 *1705:B1_N *1858:A 0.000122797
19 *1767:CLK *494:8 2.75229e-05
20 *1767:RESET_B *1858:A 4.70326e-05
21 *256:68 *1697:C 5.19006e-06
22 *256:72 *1662:D_N 0
23 *256:72 *494:43 0
24 *339:10 *494:23 2.99518e-06
25 *339:10 *494:32 5.19493e-05
26 *339:10 *494:43 1.56908e-05
27 *339:16 *1858:A 0
28 *339:16 *494:23 3.63701e-06
29 *339:139 *1700:A 6.90499e-05
30 *361:36 *1662:D_N 5.53249e-06
31 *361:36 *494:23 3.72952e-05
32 *361:36 *494:32 5.38986e-05
33 *361:36 *494:43 0.000178512
34 *375:12 *1662:D_N 0.000105667
35 *388:163 *1858:A 0.000154681
36 *400:22 *1700:A 6.24501e-05
37 *482:38 *1858:A 1.9e-05
38 *482:38 *494:23 0.000108828
39 *482:38 *494:32 7.23533e-05
*RES
1 *1767:Q *494:8 4.05 
2 *494:8 *1858:A 7.845 
3 *494:8 *494:23 1.38 
4 *494:23 *1852:A 3.6 
5 *494:23 *494:32 2.145 
6 *494:32 *1700:A 4.74 
7 *494:32 *494:43 3.675 
8 *494:43 *494:47 2.36 
9 *494:47 *1697:C 3.445 
10 *494:47 *1665:D_N 2.41 
11 *494:43 *1662:D_N 6.81 
*END

*D_NET *495 0.00395586
*CONN
*I *1662:C I *D sky130_fd_sc_hd__nor4b_1
*I *1697:B I *D sky130_fd_sc_hd__or4_1
*I *1665:C I *D sky130_fd_sc_hd__or4b_2
*I *1851:A I *D sky130_fd_sc_hd__dlygate4sd3_1
*I *1856:A I *D sky130_fd_sc_hd__dlygate4sd3_1
*I *1768:Q O *D sky130_fd_sc_hd__dfrtp_1
*CAP
1 *1662:C 0
2 *1697:B 0.000113869
3 *1665:C 0
4 *1851:A 0
5 *1856:A 2.22788e-05
6 *1768:Q 0.000225559
7 *495:61 0.000548274
8 *495:38 0.000790847
9 *495:21 0.000432023
10 *495:10 0.000323419
11 *495:38 *1665:A 5.34751e-05
12 *495:38 *1697:A 1.12578e-05
13 *495:61 *1662:A 9.7837e-05
14 *495:61 *1662:B 1.07285e-05
15 *495:61 *1665:A 7.33851e-05
16 *495:61 *497:8 1.18171e-05
17 *1531:B1 *495:61 1.22325e-05
18 *1662:D_N *495:38 0
19 *1698:A2 *1697:B 5.31158e-06
20 *1701:A1 *495:38 0.000370372
21 *1701:A2 *495:38 1.31901e-05
22 *1702:B *495:61 5.68523e-06
23 *1749:A *495:21 0
24 *1768:RESET_B *495:10 4.91189e-05
25 *1768:RESET_B *495:21 5.21545e-05
26 *1769:CLK *495:61 0.000119246
27 *1890:A *495:38 0
28 *257:10 *1697:B 7.59067e-05
29 *381:100 *495:21 8.53113e-06
30 *381:100 *495:38 0.000311324
31 *400:22 *495:10 6.36578e-05
32 *400:22 *495:21 0.000100544
33 *400:22 *495:38 5.53249e-06
34 *428:6 *1856:A 4.82863e-05
*RES
1 *1768:Q *495:10 6.81 
2 *495:10 *1856:A 4.05 
3 *495:10 *495:21 2.145 
4 *495:21 *1851:A 3.6 
5 *495:21 *495:38 11.155 
6 *495:38 *1665:C 3.6 
7 *495:38 *495:61 9.335 
8 *495:61 *1697:B 7.685 
9 *495:61 *1662:C 1.6 
*END

*D_NET *496 0.00548336
*CONN
*I *1855:A I *D sky130_fd_sc_hd__dlygate4sd3_1
*I *1697:A I *D sky130_fd_sc_hd__or4_1
*I *1665:B I *D sky130_fd_sc_hd__or4b_2
*I *1662:B I *D sky130_fd_sc_hd__nor4b_1
*I *1769:Q O *D sky130_fd_sc_hd__dfrtp_1
*CAP
1 *1855:A 0.000194828
2 *1697:A 0.00022333
3 *1665:B 0.000165584
4 *1662:B 0.000803778
5 *1769:Q 0
6 *496:19 0.000741451
7 *496:17 0.000712787
8 *496:4 0.000969199
9 *1662:B *1662:A 0.000258827
10 *1697:A *1665:A 6.99384e-05
11 *1665:D_N *1697:A 5.12823e-05
12 *1697:C *1697:A 7.41575e-05
13 *1701:A1 *1697:A 4.02438e-05
14 *1701:A1 *1855:A 4.77769e-05
15 *1701:A1 *496:19 7.18795e-06
16 *1701:B1 *1697:A 4.66108e-05
17 *1701:C1 *1855:A 0.0002336
18 *1701:C1 *496:19 0.0001979
19 *1702:B *1665:B 0.000193674
20 *1702:B *1697:A 0.000344347
21 *1769:D *1662:B 1.08105e-05
22 *1874:A *1855:A 0
23 *256:68 *1697:A 8.66466e-06
24 *361:36 *1697:A 1.7457e-05
25 *375:12 *1697:A 4.79369e-05
26 *495:38 *1697:A 1.12578e-05
27 *495:61 *1662:B 1.07285e-05
*RES
1 *1769:Q *496:4 1.6 
2 *496:4 *1662:B 10.945 
3 *496:4 *496:17 2.355 
4 *496:17 *496:19 4.935 
5 *496:19 *1665:B 3.775 
6 *496:19 *1697:A 7.855 
7 *496:17 *1855:A 6.025 
*END

*D_NET *497 0.00245925
*CONN
*I *1837:A I *D sky130_fd_sc_hd__dlygate4sd3_1
*I *1665:A I *D sky130_fd_sc_hd__or4b_2
*I *1662:A I *D sky130_fd_sc_hd__nor4b_1
*I *1770:Q O *D sky130_fd_sc_hd__dfrtp_1
*CAP
1 *1837:A 2.61242e-05
2 *1665:A 0.000180152
3 *1662:A 0.000172458
4 *1770:Q 0
5 *497:8 0.00051461
6 *497:4 0.000188125
7 *1662:B *1662:A 0.000258827
8 *1697:A *1665:A 6.99384e-05
9 *1701:A1 *1665:A 3.06027e-05
10 *1701:A2 *1665:A 9.12494e-06
11 *1769:CLK *1662:A 0.000119246
12 *1769:CLK *497:8 0
13 *1769:D *1662:A 2.49909e-05
14 *1769:D *497:8 7.03219e-05
15 *339:154 *1665:A 0.000143999
16 *339:154 *497:8 0.000367603
17 *381:90 *1837:A 4.66108e-05
18 *495:38 *1665:A 5.34751e-05
19 *495:61 *1662:A 9.7837e-05
20 *495:61 *1665:A 7.33851e-05
21 *495:61 *497:8 1.18171e-05
*RES
1 *1770:Q *497:4 1.6 
2 *497:4 *497:8 6.3125 
3 *497:8 *1662:A 8.6625 
4 *497:8 *1665:A 7.9275 
5 *497:4 *1837:A 2.05 
*END
